  Job Started  at 11:15.45  3rd February   2020

  Number of CPUs =     1

  Total number of configurations input =      1

*  Input for Configuration =   1                                               *

  Formula = O9Sr3Ti3

  Number of irreducible atoms/shells =      15

  Total number atoms/shells =      15

  Dimensionality = 3               :  Bulk

  Cartesian lattice vectors (Angstroms) :

        4.000000    0.000000    0.000000
        0.000000    8.000000    0.000000
        0.000000    0.000000   10.000000

  Cell parameters (Angstroms/Degrees):

  a =       4.0000    alpha =  90.0000
  b =       8.0000    beta  =  90.0000
  c =      10.0000    gamma =  90.0000

  Initial cell volume =         320.000000 Angs**3

  Temperature of configuration =  0.000     K

  Pressure of configuration =         0.000 GPa

  Fractional coordinates of asymmetric unit :

   No.  Atomic       x           y          z         Charge      Occupancy
        Label      (Frac)      (Frac)     (Frac)        (e)         (Frac)
      1 O     c    0.500000    0.250000    0.600000    -2.00000    1.000000
      2 O     c    0.000000 *  0.750000 *  0.800000 *  -2.00000    1.000000
      3 O     c    0.500000 *  0.500000 *  0.800000 *  -2.00000    1.000000
      4 O     c    0.500000 *  0.250000 *  0.000000 *  -2.00000    1.000000
      5 O     c    0.500000 *  0.500000 *  0.200000 *  -2.00000    1.000000
      6 O     c    0.000000 *  0.500000 *  0.200000 *  -2.00000    1.000000
      7 O     c    0.000000 *  0.250000 *  0.600000 *  -2.00000    1.000000
      8 O     c    0.500000 *  0.250000 *  0.400000 *  -2.00000    1.000000
      9 O     c    0.500000 *  0.500000 *  0.400000 *  -2.00000    1.000000
     10 Sr    c    0.250000 *  0.875000 *  0.500000 *   2.00000    1.000000
     11 Sr    c    0.250000 *  0.125000 *  0.900000 *   2.00000    1.000000
     12 Sr    c    0.250000 *  0.625000 *  0.900000 *   2.00000    1.000000
     13 Ti    c    0.750000 *  0.875000 *  0.700000 *   4.00000    1.000000
     14 Ti    c    0.750000 *  0.375000 *  0.100000 *   4.00000    1.000000
     15 Ti    c    0.250000 *  0.125000 *  0.500000 *   4.00000    1.000000

*  General input information                                                   *

  Species output for all configurations :

  Species    Type    Atomic    Atomic    Charge       Radii (Angs)     Library
                     Number     Mass       (e)     Cova   Ionic  VDW   Symbol
    O        Core        8      16.00  -2.000000   0.730  0.000  1.360
    Sr       Core       38      87.62   2.000000   1.120  0.000  1.670
    Ti       Core       22      47.88   4.000000   1.470  0.000  2.190

  Lattice summation method               =    Ewald          (3-D)
                                         =    Parry          (2-D)
                                         =    Saunders et al (1-D)
  Accuracy factor for lattice sums       =   12.000

  Time limit = Infinity

  Maximum range for interatomic potentials =    100000.000000 Angstroms

  General interatomic potentials :

Atom  Types   Potential      Parameter       Value         Units   Cutoffs(Ang)
  1     2                                                            Min /  Max
O    c Sr   c Buckingham    Buckingham A     1952.3900    eV        0.000 10.000
                            Buckingham rho  0.33685000    Ang
                            Buckingham C     19.220000    eV*Ang^6
O    c Ti   c Buckingham    Buckingham A     4590.7279    eV        0.000 10.000
                            Buckingham rho  0.26100000    Ang
                            Buckingham C     0.0000000    eV*Ang^6
O    c O    c Buckingham    Buckingham A     1388.7700    eV        0.000 10.000
                            Buckingham rho  0.36262000    Ang
                            Buckingham C     175.00000    eV*Ang^6
 Calling ------OPTIONS------

*  Output for configuration   1                                                *

  Components of energy :

  Interatomic potentials     =          97.01435912 eV
  Monopole - monopole (real) =        -115.35329340 eV
  Monopole - monopole (recip)=        -197.84378280 eV
  Monopole - monopole (total)=        -313.19707620 eV
  Total lattice energy       =        -216.18271708 eV
  Total lattice energy       =          -20858.3275 kJ/(mole unit cells)

  Number of variables =       48

  Maximum number of calculations  =          1000
  Maximum Hessian update interval =            10
  Maximum step size               =   1.000000000
  Maximum parameter tolerance     =   0.000010000
  Maximum function  tolerance     =   0.000010000
  Maximum gradient  tolerance     =   0.001000000
  Maximum gradient  component     =   0.010000000

  Cell parameters to be optimised using strains

  Newton-Raphson optimiser to be used

  BFGS hessian update to be used

  Lower half triangular hessian to be used

  Start of bulk optimisation :

  ** Hessian calculated **
 Line minimisation2
 ALPHA BEFORE:    1.0000000000000000
  ** Opt : line minimisation
left   ...       0.00000000    -216.18271708
centre ...       0.25000000    -238.69473902
right  ...       0.50000000    -258.61538053

left   ...       0.00000000    -216.18271708
centre ...       0.25000000    -238.69473902
right  ...       0.50000000    -258.61538053
new    ...       1.50000000    -314.70802431

[...]

 ALPHA AFTER:    2.5072851637999034
  ** Hessian calculated **
 Line minimisation2
 ALPHA BEFORE:    1.0000000000000000
  ** Opt : line minimisation
left   ...       0.00000000    -333.77650909
centre ...       0.25000000    -341.25018853
right  ...       0.50000000    -343.76115627

[...]

 ALPHA AFTER:   0.97953839335316428
 Line minimisation2
 ALPHA BEFORE:    1.1748522459046125
  ** Opt : line minimisation
left   ...       0.00000000    -426.93898451
centre ...       0.29371306    -428.75934111
right  ...       0.58742612    -427.21830269

[...]

 ALPHA AFTER:    3.1351886552931724E-002
 Line minimisation2
 ALPHA BEFORE:    3.0510362676375410E-002
  ** Opt : line minimisation
left   ...       0.00000000    -469.48083610
centre ...       0.00762759    -469.48066318
right  ...      -0.00762759    -469.48083401

[...]

 ALPHA AFTER:   -5.8779477351790987E-004
  ** Hessian calculated **
 Line minimisation2
 ALPHA BEFORE:    1.0000000000000000
  ** Opt : line minimisation
left   ...       0.00000000    -469.48083610
centre ...       0.25000000    -469.48071936
right  ...      -0.25000000    -469.48077831

[...]

left   ...      -0.00303831    -469.48083528
centre ...       0.00000000    -469.48083610
right  ...       0.03323639    -469.48066993
new    ...      -0.00058779    -469.48083594

 ALPHA AFTER:   -5.8779477351790987E-004

  **** Conditions for a minimum have not been satisfied. However ****
  **** no lower point can be found - treat results with caution  ****
  **** unless gradient norm is small (less than 0.1)             ****

  Final energy =    -469.48083610 eV
  Final Gnorm  =       0.00674589

  Components of energy :

  Interatomic potentials     =          75.12991676 eV
  Monopole - monopole (real) =        -284.29593050 eV
  Monopole - monopole (recip)=        -260.31482235 eV
  Monopole - monopole (total)=        -544.61075285 eV
  Total lattice energy       =        -469.48083610 eV
  Total lattice energy       =          -45297.7240 kJ/(mole unit cells)

  Final fractional coordinates of atoms :

   No.  Atomic        x           y          z          Radius
        Label       (Frac)      (Frac)     (Frac)       (Angs)
     1  O     c     0.500000    0.250000    0.600000    0.000000
     2  O     c     0.487222    0.773721    0.772488    0.000000
     3  O     c     0.925080    0.498041    0.045345    0.000000
     4  O     c     0.134805    0.104512    0.840840    0.000000
     5  O     c     0.128009    0.158591    0.221918    0.000000
     6  O     c     0.412267    0.387249    0.179860    0.000000
     7  O     c     0.205443    0.918948    0.463777    0.000000
     8  O     c     0.527765    0.888662    0.251676    0.000000
     9  O     c     0.030312    0.684790    0.652588    0.000000
    10  Sr    c     0.696697    0.507191    0.537315    0.000000
    11  Sr    c     0.816767    0.869648    0.099745    0.000000
    12  Sr    c     0.501497    0.503732    0.941215    0.000000
    13  Ti    c     0.198437    0.859721    0.674358    0.000000
    14  Ti    c     0.135746    0.303742    0.073308    0.000000
    15  Ti    c     0.362133    0.050543    0.396761    0.000000

  Final Cartesian lattice vectors (Angstroms) :

        6.281437    0.442056   -0.751771
        0.884113    7.017032   -1.201474
       -1.879427   -1.501842    7.169740

  Final cell parameters and derivatives :

       a            6.341689 Angstrom     dE/de1(xx)     0.073758 eV/strain
       b            7.173837 Angstrom     dE/de2(yy)     0.081414 eV/strain
       c            7.562602 Angstrom     dE/de3(zz)     0.151522 eV/strain
       alpha      112.560231 Degrees      dE/de4(yz)     0.000399 eV/strain
       beta       111.862701 Degrees      dE/de5(xz)     0.048705 eV/strain
       gamma       77.871379 Degrees      dE/de6(xy)     0.049548 eV/strain

  Primitive cell volume =           293.966486 Angs**3

  Density of cell =      3.109679 g/cm**3

  Non-primitive cell volume =           293.966486 Angs**3

  Final internal derivatives :

   No.  Atomic          a             b             c           Radius
        Label          (eV)          (eV)          (eV)        (eV/Angs)
      1 O     c       0.000000      0.000000      0.000000      0.000000
      2 O     c      -0.008214      0.047837     -0.016389      0.000000
      3 O     c      -0.023902      0.075769     -0.014505      0.000000
      4 O     c       0.002465     -0.076823     -0.083720      0.000000
      5 O     c      -0.050342      0.037374     -0.014592      0.000000
      6 O     c       0.031182      0.017925      0.001501      0.000000
      7 O     c      -0.034210     -0.030344     -0.034632      0.000000
      8 O     c      -0.015841     -0.025911     -0.063770      0.000000
      9 O     c      -0.038763     -0.054150      0.062782      0.000000
     10 Sr    c      -0.019015     -0.014844      0.017822      0.000000
     11 Sr    c       0.006264     -0.000814     -0.002078      0.000000
     12 Sr    c      -0.008230      0.001395      0.008618      0.000000
     13 Ti    c       0.064457      0.024375      0.001758      0.000000
     14 Ti    c      -0.022701      0.002073     -0.038209      0.000000
     15 Ti    c       0.056885     -0.098148      0.012069      0.000000
  Maximum abs         0.064457      0.098148      0.083720      0.000000

  Time to end of optimisation =       1.0066 seconds

 Exiting ------OPTIONS------

  Timing analysis for GULP :

  Task / Subroutine                                          Time (Seconds)
  Calculation of reciprocal space energy and derivatives          0.0664
  Calculation of real space energy and derivatives                0.9233
  Calculation and manipulation of Hessian matrix                  0.0003
  Calculation of matrix inversion                                 0.0010
  Global summation overhead                                       0.0003

  Job Finished at 11:15.46  3rd February   2020