  Job Started  at 10:26.01 31st October    2019

  Number of CPUs =     1

  Total number of configurations input =      1

*  Input for Configuration =   1                                               *

  Formula = O9Sr3Ti3

  Number of irreducible atoms/shells =      15

  Total number atoms/shells =      15

  Dimensionality = 3               :  Bulk

  Cartesian lattice vectors (Angstroms) :

        6.000000    0.000000    0.000000
        0.000000    6.000000    0.000000
        0.000000    0.000000   12.000000

  Cell parameters (Angstroms/Degrees):

  a =       6.0000    alpha =  90.0000
  b =       6.0000    beta  =  90.0000
  c =      12.0000    gamma =  90.0000

  Initial cell volume =         432.000000 Angs**3

  Temperature of configuration =  0.000     K

  Pressure of configuration =         0.000 GPa

  Fractional coordinates of asymmetric unit :

   No.  Atomic       x           y          z         Charge      Occupancy
        Label      (Frac)      (Frac)     (Frac)        (e)         (Frac)
      1 O     c    0.000000    0.333330    0.833330    -2.00000    1.000000
      2 O     c    0.666670 *  0.666670 *  0.000000 *  -2.00000    1.000000
      3 O     c    0.333330 *  0.666670 *  0.166670 *  -2.00000    1.000000
      4 O     c    0.333330 *  0.000000 *  0.166670 *  -2.00000    1.000000
      5 O     c    0.333330 *  0.333330 *  0.166670 *  -2.00000    1.000000
      6 O     c    0.333330 *  0.333330 *  0.833330 *  -2.00000    1.000000
      7 O     c    0.333330 *  0.000000 *  0.500000 *  -2.00000    1.000000
      8 O     c    0.666670 *  0.000000 *  0.000000 *  -2.00000    1.000000
      9 O     c    0.666670 *  0.000000 *  0.166670 *  -2.00000    1.000000
     10 Sr    c    0.500000 *  0.833330 *  0.916670 *   2.00000    1.000000
     11 Sr    c    0.166670 *  0.500000 *  0.916670 *   2.00000    1.000000
     12 Sr    c    0.166670 *  0.833330 *  0.416670 *   2.00000    1.000000
     13 Ti    c    0.833330 *  0.500000 *  0.416670 *   4.00000    1.000000
     14 Ti    c    0.166670 *  0.166670 *  0.916670 *   4.00000    1.000000
     15 Ti    c    0.833330 *  0.833330 *  0.583330 *   4.00000    1.000000

*  General input information                                                   *

  Species output for all configurations :

  Species    Type    Atomic    Atomic    Charge       Radii (Angs)     Library
                     Number     Mass       (e)     Cova   Ionic  VDW   Symbol
    O        Core        8      16.00  -2.000000   0.730  0.000  1.360
    Sr       Core       38      87.62   2.000000   1.120  0.000  1.670
    Ti       Core       22      47.88   4.000000   1.470  0.000  2.190

  Lattice summation method               =    Ewald          (3-D)
                                         =    Parry          (2-D)
                                         =    Saunders et al (1-D)
  Accuracy factor for lattice sums       =   12.000

  Time limit = Infinity

  Maximum range for interatomic potentials =    100000.000000 Angstroms

  General interatomic potentials :

Atom  Types   Potential      Parameter       Value         Units   Cutoffs(Ang)
  1     2                                                            Min /  Max
O    c Sr   c Buckingham    Buckingham A     1952.3900    eV        0.000 10.000
                            Buckingham rho  0.33685000    Ang
                            Buckingham C     19.220000    eV*Ang^6
O    c Ti   c Buckingham    Buckingham A     4590.7279    eV        0.000 10.000
                            Buckingham rho  0.26100000    Ang
                            Buckingham C     0.0000000    eV*Ang^6
O    c O    c Buckingham    Buckingham A     1388.7700    eV        0.000 10.000
                            Buckingham rho  0.36262000    Ang
                            Buckingham C     175.00000    eV*Ang^6

*  Output for configuration   1                                                *

  Components of energy :

  Interatomic potentials     =          86.73882635 eV
  Monopole - monopole (real) =         -15.03500613 eV
  Monopole - monopole (recip)=        -125.05826005 eV
  Monopole - monopole (total)=        -140.09326618 eV
  Total lattice energy       =         -53.35443983 eV
  Total lattice energy       =           -5147.8878 kJ/(mole unit cells)

  Number of variables =       48

  Maximum number of calculations  =          1000
  Maximum Hessian update interval =            10
  Maximum step size               =   1.000000000
  Maximum parameter tolerance     =   0.000010000
  Maximum function  tolerance     =   0.000010000
  Maximum gradient  tolerance     =   0.001000000
  Maximum gradient  component     =   0.010000000

  Cell parameters to be optimised using strains

  Newton-Raphson optimiser to be used

  BFGS hessian update to be used

  Lower half triangular hessian to be used

  Start of bulk optimisation :

  ** Hessian calculated **
  ** Hessian calculated **
  ** Hessian calculated **
  ** Hessian calculated **
  ** Hessian calculated **
  ** Hessian calculated **
  ** Hessian calculated **
  ** Hessian calculated **
  ** Hessian calculated **
  ** Hessian calculated **
  ** Hessian calculated **
  ** Hessian calculated **
  ** Hessian calculated **
  ** Hessian calculated **
  ** Hessian calculated **
  ** Hessian calculated **
  ** Hessian calculated **
  ** Hessian calculated **

  **** Conditions for a minimum have not been satisfied. However ****
  **** no lower point can be found - treat results with caution  ****
  **** unless gradient norm is small (less than 0.1)             ****

  Final energy = **************** eV
  Final Gnorm  = 8539430.64418749

  Components of energy :

  Interatomic potentials     =    -2801177.94614176 eV
  Monopole - monopole (real) =         122.94304044 eV
  Monopole - monopole (recip)=        -314.83708941 eV
  Monopole - monopole (total)=        -191.89404897 eV
  Total lattice energy       =    -2801369.84019073 eV
  Total lattice energy       =      -270289366.7185 kJ/(mole unit cells)

  Final fractional coordinates of atoms :

   No.  Atomic        x           y          z          Radius
        Label       (Frac)      (Frac)     (Frac)       (Angs)
     1  O     c     0.000000    0.333330    0.833330    0.000000
     2  O     c     0.827878    0.567903    0.075225    0.000000
     3  O     c     0.768105    0.563530    0.044638    0.000000
     4  O     c     0.433060    0.874810    0.205129    0.000000
     5  O     c     0.529252    0.191269    0.217859    0.000000
     6  O     c     0.368800    0.272456    0.841236    0.000000
     7  O     c     0.555800    0.884633    0.566054    0.000000
     8  O     c     0.806896    0.085358    0.998265    0.000000
     9  O     c     0.453581    0.951865    0.216733    0.000000
    10  Sr    c     0.578543    0.773516    0.001055    0.000000
    11  Sr    c     0.249029    0.549955    0.999550    0.000000
    12  Sr    c     0.435036    0.641341    0.342985    0.000000
    13  Ti    c     0.740786    0.268563    0.572130    0.000000
    14  Ti    c     0.250012    0.175161    0.044900    0.000000
    15  Ti    c     0.862397    0.831545    0.298405    0.000000

  Final Cartesian lattice vectors (Angstroms) :

        4.755953   -0.195074   -1.756635
       -0.195074    6.004861   -0.423464
       -3.513270   -0.846927    6.539191

  Final cell parameters and derivatives :

       a            5.073747 Angstrom     dE/de1(xx) ************ eV/strain
       b            6.022933 Angstrom     dE/de2(yy) ************ eV/strain
       c            7.471370 Angstrom     dE/de3(zz) ************ eV/strain
       alpha       99.167572 Degrees      dE/de4(yz) ************ eV/strain
       beta       137.684031 Degrees      dE/de5(xz) ************ eV/strain
       gamma       92.541901 Degrees      dE/de6(xy) ************ eV/strain

  Primitive cell volume =           147.157488 Angs**3

  Density of cell =      6.211993 g/cm**3

  Non-primitive cell volume =           147.157488 Angs**3

  Final internal derivatives :

   No.  Atomic          a             b             c           Radius
        Label          (eV)          (eV)          (eV)        (eV/Angs)
      1 O     c       0.000000      0.000000      0.000000      0.000000
      2 O     c **************************** 226167.932621      0.000000
      3 O     c ****************************-226247.770232      0.000000
      4 O     c  -60358.480989************** 293649.884626      0.000000
      5 O     c    -792.634526    181.955489   -628.855257      0.000000
      6 O     c      92.058982     84.457141     12.659252      0.000000
      7 O     c      67.171486    -65.588619   -143.423521      0.000000
      8 O     c     -32.960250     55.238945    -21.492515      0.000000
      9 O     c   60233.9865921642174.954732-293538.516084      0.000000
     10 Sr    c      42.542322   -321.806763    295.695748      0.000000
     11 Sr    c     -29.805207   -272.220127    -30.792509      0.000000
     12 Sr    c      29.674605    114.821557    -69.943779      0.000000
     13 Ti    c     -58.976023    167.581408    448.044873      0.000000
     14 Ti    c     801.132909   -157.818005    553.776535      0.000000
     15 Ti    c     -68.974445    -47.991359    -86.354578      0.000000
  Maximum abs   **************************** 293649.884626      0.000000

  Time to end of optimisation =       0.2337 seconds

  Timing analysis for GULP :

  Task / Subroutine                                          Time (Seconds)
  Calculation of reciprocal space energy and derivatives          0.0199
  Calculation of real space energy and derivatives                0.2063
  Calculation and manipulation of Hessian matrix                  0.0002
  Calculation of matrix inversion                                 0.0007

  Job Finished at 10:26.01 31st October    2019