  Job Started  at 16:13.23 24th January    2020

  Number of CPUs =     1

  Total number of configurations input =      1

*  Input for Configuration =   1                                               *

  Formula = O9Sr3Ti3

  Number of irreducible atoms/shells =      15

  Total number atoms/shells =      15

  Dimensionality = 3               :  Bulk

  Cartesian lattice vectors (Angstroms) :

        4.000000    0.000000    0.000000
        0.000000    8.000000    0.000000
        0.000000    0.000000   10.000000

  Cell parameters (Angstroms/Degrees):

  a =       4.0000    alpha =  90.0000
  b =       8.0000    beta  =  90.0000
  c =      10.0000    gamma =  90.0000

  Initial cell volume =         320.000000 Angs**3

  Temperature of configuration =  0.000     K

  Pressure of configuration =         0.000 GPa

  Fractional coordinates of asymmetric unit :

   No.  Atomic       x           y          z         Charge      Occupancy
        Label      (Frac)      (Frac)     (Frac)        (e)         (Frac)
      1 O     c    0.500000    0.250000    0.600000    -2.00000    1.000000
      2 O     c    0.000000 *  0.750000 *  0.800000 *  -2.00000    1.000000
      3 O     c    0.500000 *  0.500000 *  0.800000 *  -2.00000    1.000000
      4 O     c    0.500000 *  0.250000 *  0.000000 *  -2.00000    1.000000
      5 O     c    0.500000 *  0.500000 *  0.200000 *  -2.00000    1.000000
      6 O     c    0.000000 *  0.500000 *  0.200000 *  -2.00000    1.000000
      7 O     c    0.000000 *  0.250000 *  0.600000 *  -2.00000    1.000000
      8 O     c    0.500000 *  0.250000 *  0.400000 *  -2.00000    1.000000
      9 O     c    0.500000 *  0.500000 *  0.400000 *  -2.00000    1.000000
     10 Sr    c    0.250000 *  0.875000 *  0.500000 *   2.00000    1.000000
     11 Sr    c    0.250000 *  0.125000 *  0.900000 *   2.00000    1.000000
     12 Sr    c    0.250000 *  0.625000 *  0.900000 *   2.00000    1.000000
     13 Ti    c    0.750000 *  0.875000 *  0.700000 *   4.00000    1.000000
     14 Ti    c    0.750000 *  0.375000 *  0.100000 *   4.00000    1.000000
     15 Ti    c    0.250000 *  0.125000 *  0.500000 *   4.00000    1.000000

*  General input information                                                   *

  Species output for all configurations :

  Species    Type    Atomic    Atomic    Charge       Radii (Angs)     Library
                     Number     Mass       (e)     Cova   Ionic  VDW   Symbol
    O        Core        8      16.00  -2.000000   0.730  0.000  1.360
    Sr       Core       38      87.62   2.000000   1.120  0.000  1.670
    Ti       Core       22      47.88   4.000000   1.470  0.000  2.190

  Lattice summation method               =    Ewald          (3-D)
                                         =    Parry          (2-D)
                                         =    Saunders et al (1-D)
  Accuracy factor for lattice sums       =   12.000

  Time limit = Infinity

  Maximum range for interatomic potentials =    100000.000000 Angstroms

  General interatomic potentials :

Atom  Types   Potential      Parameter       Value         Units   Cutoffs(Ang)
  1     2                                                            Min /  Max
O    c Sr   c Buckingham    Buckingham A     1952.3900    eV        0.000 10.000
                            Buckingham rho  0.33685000    Ang
                            Buckingham C     19.220000    eV*Ang^6
O    c Ti   c Buckingham    Buckingham A     4590.7279    eV        0.000 10.000
                            Buckingham rho  0.26100000    Ang
                            Buckingham C     0.0000000    eV*Ang^6
O    c O    c Buckingham    Buckingham A     1388.7700    eV        0.000 10.000
                            Buckingham rho  0.36262000    Ang
                            Buckingham C     175.00000    eV*Ang^6
 Calling ------OPTIONS------

*  Output for configuration   1                                                *

  Components of energy :

  Interatomic potentials     =          97.01435912 eV
  Monopole - monopole (real) =        -115.35329340 eV
  Monopole - monopole (recip)=        -197.84378280 eV
  Monopole - monopole (total)=        -313.19707620 eV
  Total lattice energy       =        -216.18271708 eV
  Total lattice energy       =          -20858.3275 kJ/(mole unit cells)

  Number of variables =       48

  Maximum number of calculations  =          1000
  Maximum Hessian update interval =            10
  Maximum step size               =   0.250000000
  Maximum parameter tolerance     =   0.000010000
  Maximum function  tolerance     =   0.000010000
  Maximum gradient  tolerance     =   0.001000000
  Maximum gradient  component     =   0.010000000

  Cell parameters to be optimised using strains

  Conjugate gradient optimiser to be used

  Lower half triangular hessian to be used

  Start of bulk optimisation :

 Perform trimming
 Line minimisation2
 ALPHA BEFORE:    1.0000000000000000
 ALPHA AFTER:    1.0915402701756176
 Perform trimming
 Line minimisation2
 ALPHA BEFORE:    1.0915402701756176
 ALPHA AFTER:   0.26516019817264697
 Line minimisation2
 ALPHA BEFORE:   0.26516019817264697
 ALPHA AFTER:   0.26835449976775766
 Line minimisation2
 ALPHA BEFORE:   0.26835449976775766
 ALPHA AFTER:   0.32025004981589428
 Line minimisation2
 ALPHA BEFORE:   0.32025004981589428
 ALPHA AFTER:   0.36714732277595785
 Line minimisation2
 ALPHA BEFORE:   0.36714732277595785
 ALPHA AFTER:   0.26473062823688442
 Perform trimming
 Line minimisation2
 ALPHA BEFORE:   0.26473062823688442
 ALPHA AFTER:   0.20590037083435600
 Line minimisation2
 ALPHA BEFORE:   0.20590037083435600
 ALPHA AFTER:   0.28044546971525403
 Perform trimming
 Line minimisation2
 ALPHA BEFORE:   0.28044546971525403
 ALPHA AFTER:   0.26179823814760189
 Line minimisation2
 ALPHA BEFORE:   0.26179823814760189
 ALPHA AFTER:   0.20883556199188336
 Line minimisation2
 ALPHA BEFORE:   0.20883556199188336
 ALPHA AFTER:   0.19668764877433395
 Line minimisation2
 ALPHA BEFORE:   0.19668764877433395
 ALPHA AFTER:   0.48374997724148522
 Line minimisation2
 ALPHA BEFORE:   0.48374997724148522
 ALPHA AFTER:   0.32259306420028649
 Line minimisation2
 ALPHA BEFORE:   0.32259306420028649
 ALPHA AFTER:   0.20335202153039328
 Line minimisation2
 ALPHA BEFORE:   0.20335202153039328
 ALPHA AFTER:   0.39707052547698313
 Line minimisation2
 ALPHA BEFORE:   0.39707052547698313
 ALPHA AFTER:   0.37838459018184395
 Perform trimming
 Line minimisation2
 ALPHA BEFORE:   0.37838459018184395
 ALPHA AFTER:   0.24710403867958369
 Line minimisation2
 ALPHA BEFORE:   0.24710403867958369
 ALPHA AFTER:   0.39031062396250343
 Line minimisation2
 ALPHA BEFORE:   0.39031062396250343
 ALPHA AFTER:   0.23281619903722750
 Line minimisation2
 ALPHA BEFORE:   0.23281619903722750
 ALPHA AFTER:   0.21409200288870939
 Perform trimming
 Line minimisation2
 ALPHA BEFORE:   0.21409200288870939
 ALPHA AFTER:   0.24520718215046292
 Line minimisation2
 ALPHA BEFORE:   0.24520718215046292
 ALPHA AFTER:   0.27074323345366902
 Line minimisation2
 ALPHA BEFORE:   0.27074323345366902
 ALPHA AFTER:   0.40691663580229892
 Perform trimming
 Line minimisation2
 ALPHA BEFORE:   0.40691663580229892
 ALPHA AFTER:   0.50345715967705185
 Perform trimming
 Line minimisation2
 ALPHA BEFORE:   0.50345715967705185
 ALPHA AFTER:   0.24486212722656303
 Perform trimming
 Line minimisation2
 ALPHA BEFORE:   0.24486212722656303
 ALPHA AFTER:   0.34009062302763488
 Line minimisation2
 ALPHA BEFORE:   0.34009062302763488
 ALPHA AFTER:   0.25816845106532882
 Line minimisation2
 ALPHA BEFORE:   0.25816845106532882
 ALPHA AFTER:   0.33307499813646047
 Line minimisation2
 ALPHA BEFORE:   0.33307499813646047
 ALPHA AFTER:   0.27278197115146235
 Line minimisation2
 ALPHA BEFORE:   0.27278197115146235
 ALPHA AFTER:   0.11102878346912254
 Line minimisation2
 ALPHA BEFORE:   0.11102878346912254
 ALPHA AFTER:   0.38873378117947416
 Line minimisation2
 ALPHA BEFORE:   0.38873378117947416
 ALPHA AFTER:   0.69436689058973711
 Perform trimming
 Line minimisation2
 ALPHA BEFORE:   0.69436689058973711
 ALPHA AFTER:   0.32819802570287371
 Line minimisation2
 ALPHA BEFORE:   0.32819802570287371
 ALPHA AFTER:   0.26346729134218555
 Perform trimming
 Line minimisation2
 ALPHA BEFORE:   0.26346729134218555
 ALPHA AFTER:   0.37012530202480332
 Line minimisation2
 ALPHA BEFORE:   0.37012530202480332
 ALPHA AFTER:   0.24228409536741902
 Line minimisation2
 ALPHA BEFORE:   0.24228409536741902
 ALPHA AFTER:   0.33319137344864241
 Perform trimming
 Line minimisation2
 ALPHA BEFORE:   0.33319137344864241
 ALPHA AFTER:   0.24961803299198185
 Line minimisation2
 ALPHA BEFORE:   0.24961803299198185
 ALPHA AFTER:   0.62134711707591272
 Line minimisation2
 ALPHA BEFORE:   0.62134711707591272
 ALPHA AFTER:   0.13662992503412183
 Line minimisation2
 ALPHA BEFORE:   0.13662992503412183
 ALPHA AFTER:   0.26944795290856333
 Line minimisation2
 ALPHA BEFORE:   0.26944795290856333
 ALPHA AFTER:   0.31074334294825245
 Perform trimming
 Line minimisation2
 ALPHA BEFORE:   0.31074334294825245
 ALPHA AFTER:   0.29358506835334675
 Line minimisation2
 ALPHA BEFORE:   0.29358506835334675
 ALPHA AFTER:   0.48282178628429384
 Perform trimming
 Line minimisation2
 ALPHA BEFORE:   0.48282178628429384
 ALPHA AFTER:   0.34439885405821119
 Line minimisation2
 ALPHA BEFORE:   0.34439885405821119
 ALPHA AFTER:   0.22903901466606483
 Line minimisation2
 ALPHA BEFORE:   0.22903901466606483
 ALPHA AFTER:   0.29271974790902450
 Line minimisation2
 ALPHA BEFORE:   0.29271974790902450
 ALPHA AFTER:   0.48213316429271535
 Perform trimming
 Line minimisation2
 ALPHA BEFORE:   0.48213316429271535
 ALPHA AFTER:   0.25912594100526037
 Line minimisation2
 ALPHA BEFORE:   0.25912594100526037
 ALPHA AFTER:   0.21102311461234857
 Line minimisation2
 ALPHA BEFORE:   0.21102311461234857
 ALPHA AFTER:   0.24458076454232244
 Line minimisation2
 ALPHA BEFORE:   0.24458076454232244
 ALPHA AFTER:   0.37229038227116124
 Line minimisation2
 ALPHA BEFORE:   0.37229038227116124
 ALPHA AFTER:   0.26652791637085849
 Line minimisation2
 ALPHA BEFORE:   0.26652791637085849
 ALPHA AFTER:   0.56496312871057075
 Perform trimming
 Line minimisation2
 ALPHA BEFORE:   0.56496312871057075
 ALPHA AFTER:   0.42676771864695029
 Line minimisation2
 ALPHA BEFORE:   0.42676771864695029
 ALPHA AFTER:   0.21338385932347514
 Line minimisation2
 ALPHA BEFORE:   0.21338385932347514
 ALPHA AFTER:   0.27830439769707482
 Line minimisation2
 ALPHA BEFORE:   0.27830439769707482
 ALPHA AFTER:   0.38224494521618890
 Perform trimming
 Line minimisation2
 ALPHA BEFORE:   0.38224494521618890
 ALPHA AFTER:   0.16242338033068091
 Line minimisation2
 ALPHA BEFORE:   0.16242338033068091
 ALPHA AFTER:   0.16327858023570233
 Line minimisation2
 ALPHA BEFORE:   0.16327858023570233
 ALPHA AFTER:   0.21901685269660792
 Line minimisation2
 ALPHA BEFORE:   0.21901685269660792
 ALPHA AFTER:   0.53912902755546555
 Line minimisation2
 ALPHA BEFORE:   0.53912902755546555
 ALPHA AFTER:   0.32756085711270944
 Line minimisation2
 ALPHA BEFORE:   0.32756085711270944
 ALPHA AFTER:   0.62987965967955650
 Line minimisation2
 ALPHA BEFORE:   0.62987965967955650
[...]
 Line minimisation2
 ALPHA BEFORE:   0.39583415420683427
 ALPHA AFTER:   0.94791707710341711
 Line minimisation2
 ALPHA BEFORE:   0.94791707710341711
 ALPHA AFTER:   0.26993080584898377
 Perform trimming
 Line minimisation2
 ALPHA BEFORE:   0.26993080584898377
 ALPHA AFTER:   0.50703994731081103
 Perform trimming
 Line minimisation2
 ALPHA BEFORE:   0.50703994731081103
 ALPHA AFTER:   0.30398386901498931
 Line minimisation2
 ALPHA BEFORE:   0.30398386901498931
 ALPHA AFTER:   0.60324470753060577
 Line minimisation2
 ALPHA BEFORE:   0.60324470753060577
 ALPHA AFTER:   0.13150277345369471
 Line minimisation2
 ALPHA BEFORE:   0.13150277345369471
 ALPHA AFTER:   0.18792235214632799
 Line minimisation2
 ALPHA BEFORE:   0.18792235214632799
 ALPHA AFTER:   0.55001367391672074
 Perform trimming
 Line minimisation2
 ALPHA BEFORE:   0.55001367391672074
 ALPHA AFTER:   0.77500683695836037
 Line minimisation2
 ALPHA BEFORE:   0.77500683695836037
 ALPHA AFTER:   0.21338919999034717
 Line minimisation2
 ALPHA BEFORE:   0.21338919999034717
 ALPHA AFTER:   0.44598918860556519
 Perform trimming
 Line minimisation2
 ALPHA BEFORE:   0.44598918860556519
 ALPHA AFTER:   0.28175772241598673
 Line minimisation2
 ALPHA BEFORE:   0.28175772241598673
 ALPHA AFTER:   0.27544733538538391
 Line minimisation2
 ALPHA BEFORE:   0.27544733538538391
 ALPHA AFTER:   0.36637273887941507
 Perform trimming
 Line minimisation2
 ALPHA BEFORE:   0.36637273887941507
 ALPHA AFTER:   0.93318636943970756
 Line minimisation2
 ALPHA BEFORE:   0.93318636943970756
 ALPHA AFTER:   0.11474072762560755
 Line minimisation2
 ALPHA BEFORE:   0.11474072762560755
 ALPHA AFTER:   0.24842193861372319
 Line minimisation2
 ALPHA BEFORE:   0.24842193861372319
 ALPHA AFTER:   0.12421096930686160
 Line minimisation2
 ALPHA BEFORE:   0.12421096930686160
 ALPHA AFTER:   0.39016151855634995
 Perform trimming
 Line minimisation2
 ALPHA BEFORE:   0.39016151855634995
 ALPHA AFTER:   0.69508075927817492
 Perform trimming
 Line minimisation2
 ALPHA BEFORE:   0.69508075927817492
 ALPHA AFTER:    1.0975403796390875
 Perform trimming
 Line minimisation2
 ALPHA BEFORE:    1.0975403796390875
 ALPHA AFTER:   0.34800767882805567
 Perform trimming
 Line minimisation2
 ALPHA BEFORE:   0.34800767882805567
 ALPHA AFTER:   0.63233175981774137
 Perform trimming
 Line minimisation2
 ALPHA BEFORE:   0.63233175981774137
 ALPHA AFTER:    1.0661658799088707
 Perform trimming
 Line minimisation2
 ALPHA BEFORE:    1.0661658799088707
 ALPHA AFTER:   0.75000000000000000
 Line minimisation2
 ALPHA BEFORE:   0.75000000000000000
 ALPHA AFTER:    9.3166566980004764E-002
 Line minimisation2
 ALPHA BEFORE:    9.3166566980004764E-002
 ALPHA AFTER:   0.34654231414509956
 Perform trimming
 Line minimisation2
 ALPHA BEFORE:   0.34654231414509956
 ALPHA AFTER:   0.59851433144931709
 Perform trimming
 Line minimisation2
 ALPHA BEFORE:   0.59851433144931709
 ALPHA AFTER:    1.0492571657246585
 Perform trimming
 Line minimisation2
 ALPHA BEFORE:    1.0492571657246585
 ALPHA AFTER:   0.33995909431678928
 Perform trimming
 Line minimisation2
 ALPHA BEFORE:   0.33995909431678928
 ALPHA AFTER:   0.35778717397224752
 Line minimisation2
 ALPHA BEFORE:   0.35778717397224752
 ALPHA AFTER:   0.20154119734080025
 Line minimisation2
 ALPHA BEFORE:   0.20154119734080025
 ALPHA AFTER:   0.18603251369912788
 Line minimisation2
 ALPHA BEFORE:   0.18603251369912788
 ALPHA AFTER:   0.26105467250380493
 Line minimisation2
 ALPHA BEFORE:   0.26105467250380493
 ALPHA AFTER:   0.55993563444377492
 Line minimisation2
 ALPHA BEFORE:   0.55993563444377492
 ALPHA AFTER:   0.11424757550533908
 Line minimisation2
 ALPHA BEFORE:   0.11424757550533908
 ALPHA AFTER:   0.20380993110972623
 Line minimisation2
 ALPHA BEFORE:   0.20380993110972623
 ALPHA AFTER:   0.60190496555486317
 Perform trimming
 Line minimisation2
 ALPHA BEFORE:   0.60190496555486317
 ALPHA AFTER:   0.80095248277743158
 Line minimisation2
 ALPHA BEFORE:   0.80095248277743158
 ALPHA AFTER:   0.47784522765698506
 Perform trimming
 Line minimisation2
 ALPHA BEFORE:   0.47784522765698506
 ALPHA AFTER:   0.25430382064955465
 Line minimisation2
 ALPHA BEFORE:   0.25430382064955465
 ALPHA AFTER:   0.38911164604174359
 Line minimisation2
 ALPHA BEFORE:   0.38911164604174359
 ALPHA AFTER:   0.29180939204748119
 Line minimisation2
 ALPHA BEFORE:   0.29180939204748119
 ALPHA AFTER:   0.28502371204398852
 Line minimisation2
 ALPHA BEFORE:   0.28502371204398852
 ALPHA AFTER:   0.26329482729244880
 Line minimisation2
 ALPHA BEFORE:   0.26329482729244880
 ALPHA AFTER:   0.17284035954385579
 Line minimisation2
 ALPHA BEFORE:   0.17284035954385579
 ALPHA AFTER:   0.14979315804743859
 Line minimisation2
 ALPHA BEFORE:   0.14979315804743859
 ALPHA AFTER:   0.61555736982441278
 Perform trimming
 Line minimisation2
 ALPHA BEFORE:   0.61555736982441278
 ALPHA AFTER:   0.79797532080771982
 Perform trimming
 Line minimisation2
 ALPHA BEFORE:   0.79797532080771982
 ALPHA AFTER:   0.64898766040385991
 Perform trimming
 Line minimisation2
 ALPHA BEFORE:   0.64898766040385991
 ALPHA AFTER:   0.37356795476573723
 Line minimisation2
 ALPHA BEFORE:   0.37356795476573723
 ALPHA AFTER:   0.25038804196309866
 Line minimisation2
 ALPHA BEFORE:   0.25038804196309866
 ALPHA AFTER:   0.31887468176988754
 Line minimisation2
 ALPHA BEFORE:   0.31887468176988754
 ALPHA AFTER:   0.27127590499780679
 Line minimisation2
 ALPHA BEFORE:   0.27127590499780679
 ALPHA AFTER:   0.28780861783946410
 Line minimisation2
 ALPHA BEFORE:   0.28780861783946410
 ALPHA AFTER:   0.19513219186233313
 Line minimisation2
 ALPHA BEFORE:   0.19513219186233313
 ALPHA AFTER:   0.20593975793987396
 Line minimisation2
 ALPHA BEFORE:   0.20593975793987396
 ALPHA AFTER:   0.37585345547505983
 Perform trimming
 Line minimisation2
 ALPHA BEFORE:   0.37585345547505983
 ALPHA AFTER:   0.33615312876879816
 Line minimisation2
 ALPHA BEFORE:   0.33615312876879816
 ALPHA AFTER:   0.91807656438439911
 Perform trimming
 Line minimisation2
 ALPHA BEFORE:   0.91807656438439911
 ALPHA AFTER:   0.53093178361069160
 Perform trimming
 Line minimisation2
 ALPHA BEFORE:   0.53093178361069160
 ALPHA AFTER:   0.42506733143025849
 Line minimisation2
 ALPHA BEFORE:   0.42506733143025849
 ALPHA AFTER:   0.21253366571512924
 Line minimisation2
 ALPHA BEFORE:   0.21253366571512924
 ALPHA AFTER:   0.27778988417760608
 Line minimisation2
 ALPHA BEFORE:   0.27778988417760608
 ALPHA AFTER:   0.50407187754466876
 Line minimisation2
 ALPHA BEFORE:   0.50407187754466876
 ALPHA AFTER:   0.12512637817467950
 Line minimisation2
 ALPHA BEFORE:   0.12512637817467950
 ALPHA AFTER:   0.44680212369493350
 Perform trimming
 Line minimisation2
 ALPHA BEFORE:   0.44680212369493350
 ALPHA AFTER:   0.36063603867502142
 Line minimisation2
 ALPHA BEFORE:   0.36063603867502142
 ALPHA AFTER:   0.47312328478812821
 Perform trimming
 Line minimisation2
 ALPHA BEFORE:   0.47312328478812821
 ALPHA AFTER:   0.30752921333861377
 Line minimisation2
 ALPHA BEFORE:   0.30752921333861377
 ALPHA AFTER:   0.32250356592719231
 Line minimisation2
 ALPHA BEFORE:   0.32250356592719231
 ALPHA AFTER:   0.33501473035563012
 Line minimisation2
 ALPHA BEFORE:   0.33501473035563012
 ALPHA AFTER:   0.32515701949134812
 Line minimisation2
 ALPHA BEFORE:   0.32515701949134812
 ALPHA AFTER:   0.23368102438270344
 Line minimisation2
 ALPHA BEFORE:   0.23368102438270344
 ALPHA AFTER:   0.80151549749797668
 Line minimisation2
 ALPHA BEFORE:   0.80151549749797668
 ALPHA AFTER:   0.12689939118995924
 Line minimisation2
 ALPHA BEFORE:   0.12689939118995924
 ALPHA AFTER:   0.18818833092142051
 Line minimisation2
 ALPHA BEFORE:   0.18818833092142051
 ALPHA AFTER:   0.38984749054204992
 Perform trimming
 Line minimisation2
 ALPHA BEFORE:   0.38984749054204992
 ALPHA AFTER:   0.39917005338318190
 Line minimisation2
 ALPHA BEFORE:   0.39917005338318190
 ALPHA AFTER:   0.20633164789674230
 Line minimisation2
 ALPHA BEFORE:   0.20633164789674230
 ALPHA AFTER:   0.27064294560090274
 Line minimisation2
 ALPHA BEFORE:   0.27064294560090274
 ALPHA AFTER:   0.19959002504979040
 Line minimisation2
 ALPHA BEFORE:   0.19959002504979040
 ALPHA AFTER:   0.25794522623050159
 Line minimisation2
 ALPHA BEFORE:   0.25794522623050159
 ALPHA AFTER:   0.26843416509700474
 Line minimisation2
 ALPHA BEFORE:   0.26843416509700474
 ALPHA AFTER:   0.37977186250913786
 Line minimisation2
 ALPHA BEFORE:   0.37977186250913786
 ALPHA AFTER:    9.7404835544722970E-002
 Line minimisation2
 ALPHA BEFORE:    9.7404835544722970E-002
 ALPHA AFTER:   0.41986323549970694
 Line minimisation2
 ALPHA BEFORE:   0.41986323549970694
 ALPHA AFTER:   0.45993161774985347
 Perform trimming
 Line minimisation2
 ALPHA BEFORE:   0.45993161774985347
 ALPHA AFTER:   0.47996580887492674
 Line minimisation2
 ALPHA BEFORE:   0.47996580887492674
 ALPHA AFTER:   0.48998290443746340
 Perform trimming
 Line minimisation2
 ALPHA BEFORE:   0.48998290443746340
 ALPHA AFTER:   0.25377123560519693
 Line minimisation2
 ALPHA BEFORE:   0.25377123560519693
 ALPHA AFTER:   0.30238268537955881
 Line minimisation2
 ALPHA BEFORE:   0.30238268537955881
 ALPHA AFTER:   0.30299254285128613
 Line minimisation2
 ALPHA BEFORE:   0.30299254285128613
 ALPHA AFTER:   0.34632420207485182
 Perform trimming
 Line minimisation2
 ALPHA BEFORE:   0.34632420207485182
 ALPHA AFTER:   0.45290827849082976
 Line minimisation2
 ALPHA BEFORE:   0.45290827849082976
 ALPHA AFTER:   0.19362404759042628
 Line minimisation2
 ALPHA BEFORE:   0.19362404759042628
 ALPHA AFTER:   0.14717446403141118
 Line minimisation2
 ALPHA BEFORE:   0.14717446403141118
 ALPHA AFTER:   0.36380554546332083
 Perform trimming
 Line minimisation2
 ALPHA BEFORE:   0.36380554546332083
 ALPHA AFTER:   0.58032739711550207
 Perform trimming
 Line minimisation2
 ALPHA BEFORE:   0.58032739711550207
 ALPHA AFTER:    1.2901636985577509
 Line minimisation2
 ALPHA BEFORE:    1.2901636985577509
 ALPHA AFTER:   0.25000000000000000
 Line minimisation2
 ALPHA BEFORE:   0.25000000000000000
 ALPHA AFTER:   0.29011994287465925
 Line minimisation2
 ALPHA BEFORE:   0.29011994287465925
 ALPHA AFTER:   0.20877928485105310
 Line minimisation2
 ALPHA BEFORE:   0.20877928485105310
 ALPHA AFTER:   0.49145789239836518
 Perform trimming
 Line minimisation2
 ALPHA BEFORE:   0.49145789239836518
 ALPHA AFTER:   0.46460980523106477
 Line minimisation2
 ALPHA BEFORE:   0.46460980523106477
 ALPHA AFTER:   0.13128523648316412
 Line minimisation2
 ALPHA BEFORE:   0.13128523648316412
 ALPHA AFTER:   0.19721667962136441
 Line minimisation2
 ALPHA BEFORE:   0.19721667962136441
 ALPHA AFTER:   0.28165553545721156
 Line minimisation2
 ALPHA BEFORE:   0.28165553545721156
 ALPHA AFTER:   0.89082776772860583
 Perform trimming
 Line minimisation2
 ALPHA BEFORE:   0.89082776772860583
 ALPHA AFTER:   0.75696602652589862
 Line minimisation2
 ALPHA BEFORE:   0.75696602652589862
 ALPHA AFTER:   0.30121473291999923
 Line minimisation2
 ALPHA BEFORE:   0.30121473291999923
 ALPHA AFTER:   0.37091783734226830
 Line minimisation2
 ALPHA BEFORE:   0.37091783734226830
 ALPHA AFTER:   0.37091783734226824
 Perform trimming
 Line minimisation2
 ALPHA BEFORE:   0.37091783734226824
 ALPHA AFTER:   0.24933848222615795
 Line minimisation2
 ALPHA BEFORE:   0.24933848222615795
 ALPHA AFTER:   0.62466924111307898
 Line minimisation2
 ALPHA BEFORE:   0.62466924111307898
 ALPHA AFTER:   0.15616731027826974
 Line minimisation2
 ALPHA BEFORE:   0.15616731027826974
 ALPHA AFTER:   0.35515134341064525
 Perform trimming
 Line minimisation2
 ALPHA BEFORE:   0.35515134341064525
 ALPHA AFTER:    4.4785053723429800E-003
 Line minimisation2
 ALPHA BEFORE:    4.4785053723429800E-003
 ALPHA AFTER:    2.2392526861714900E-003
 Line minimisation2
 ALPHA BEFORE:    2.2392526861714900E-003
 ALPHA AFTER:    1.1196263430857450E-003
 Line minimisation2
 ALPHA BEFORE:    1.1196263430857450E-003
 ALPHA AFTER:    6.6657334965834758E-004
 Line minimisation2
 ALPHA BEFORE:    6.6657334965834758E-004
 ALPHA AFTER:    4.9281449880919821E-004
 Line minimisation2
 ALPHA BEFORE:    4.9281449880919821E-004
 ALPHA AFTER:   -6.1572530989840150E-005
 Line minimisation2
 ALPHA BEFORE:    4.9281449880919821E-004
 ALPHA AFTER:   -6.1572425977008048E-005
 Line minimisation2
 ALPHA BEFORE:    4.9281449880919821E-004
 ALPHA AFTER:   -6.1572425977008048E-005

  **** Conditions for a minimum have not been satisfied. However ****
  **** no lower point can be found - treat results with caution  ****
  **** unless gradient norm is small (less than 0.1)             ****

  Final energy =    -471.45326804 eV
  Final Gnorm  =       0.01211157

  Components of energy :

  Interatomic potentials     =          69.03760896 eV
  Monopole - monopole (real) =        -252.65153210 eV
  Monopole - monopole (recip)=        -287.83934489 eV
  Monopole - monopole (total)=        -540.49087700 eV
  Total lattice energy       =        -471.45326804 eV
  Total lattice energy       =          -45488.0335 kJ/(mole unit cells)

  Final fractional coordinates of atoms :

   No.  Atomic        x           y          z          Radius
        Label       (Frac)      (Frac)     (Frac)       (Angs)
     1  O     c     0.500000    0.250000    0.600000    0.000000
     2  O     c     0.850137    0.317581    0.782293    0.000000
     3  O     c     0.029155    0.813856    0.850791    0.000000
     4  O     c     0.502876    0.298051    0.110058    0.000000
     5  O     c     0.672842    0.827278    0.204274    0.000000
     6  O     c     0.085554    0.564756    0.161775    0.000000
     7  O     c     0.828206    0.966143    0.629047    0.000000
     8  O     c     0.265461    0.377071    0.393622    0.000000
     9  O     c     0.252726    0.687044    0.565962    0.000000
    10  Sr    c     0.098496    0.942333    0.335498    0.000000
    11  Sr    c     0.284312    0.454962    0.913132    0.000000
    12  Sr    c     0.462660    0.977838    0.995238    0.000000
    13  Ti    c     0.270878    0.917582    0.661751    0.000000
    14  Ti    c     0.520888    0.522380    0.205704    0.000000
    15  Ti    c     0.068108    0.363791    0.587498    0.000000

  Final Cartesian lattice vectors (Angstroms) :

        3.643527   -0.549550    0.749324
       -1.099099    6.282250    0.531087
        1.873310    0.663858   10.253571

  Final cell parameters and derivatives :

       a            3.760157 Angstrom     dE/de1(xx)     0.008726 eV/strain
       b            6.399745 Angstrom     dE/de2(yy)     0.014817 eV/strain
       c           10.444411 Angstrom     dE/de3(zz)     0.046171 eV/strain
       alpha       83.508259 Degrees      dE/de4(yz)    -0.012481 eV/strain
       beta        68.890837 Degrees      dE/de5(xz)    -0.015317 eV/strain
       gamma      107.058278 Degrees      dE/de6(xy)    -0.000154 eV/strain

  Primitive cell volume =           217.309803 Angs**3

  Density of cell =      4.206627 g/cm**3

  Non-primitive cell volume =           217.309803 Angs**3

  Final internal derivatives :

   No.  Atomic          a             b             c           Radius
        Label          (eV)          (eV)          (eV)        (eV/Angs)
      1 O     c       0.000000      0.000000      0.000000      0.000000
      2 O     c       0.009656     -0.003858      0.170981      0.000000
      3 O     c      -0.002651      0.010688      0.155168      0.000000
      4 O     c      -0.120523     -0.077018     -0.126696      0.000000
      5 O     c      -0.142123     -0.012809     -0.083875      0.000000
      6 O     c      -0.138313      0.021872     -0.121979      0.000000
      7 O     c      -0.000653     -0.015185      0.006462      0.000000
      8 O     c      -0.046648     -0.030588      0.141111      0.000000
      9 O     c      -0.006128     -0.022904     -0.028321      0.000000
     10 Sr    c      -0.137994     -0.017157      0.046497      0.000000
     11 Sr    c      -0.024316      0.032631      0.039761      0.000000
     12 Sr    c      -0.032172     -0.024117     -0.004256      0.000000
     13 Ti    c      -0.009910      0.042803     -0.054936      0.000000
     14 Ti    c      -0.095067      0.019432      0.185763      0.000000
     15 Ti    c      -0.029196     -0.019960     -0.286473      0.000000
  Maximum abs         0.142123      0.077018      0.286473      0.000000

  Time to end of optimisation =       2.1283 seconds

 Exiting ------OPTIONS------

  Timing analysis for GULP :

  Task / Subroutine                                          Time (Seconds)
  Calculation of reciprocal space energy and derivatives          0.1718
  Calculation of real space energy and derivatives                1.9385
  Global summation overhead                                       0.0009

  Job Finished at 16:13.25 24th January    2020