  Job Started  at 13:26.26 21st February   2020

  Number of CPUs =     1

  Total number of configurations input =      1

*  Input for Configuration =   1                                               *

  Formula = O9Sr3Ti3

  Number of irreducible atoms/shells =      15

  Total number atoms/shells =      15

  Dimensionality = 3               :  Bulk

  Cartesian lattice vectors (Angstroms) :

        6.000000    0.000000    0.000000
        0.000000    6.000000    0.000000
        0.000000    0.000000   12.000000

  Cell parameters (Angstroms/Degrees):

  a =       6.0000    alpha =  90.0000
  b =       6.0000    beta  =  90.0000
  c =      12.0000    gamma =  90.0000

  Initial cell volume =         432.000000 Angs**3

  Temperature of configuration =  0.000     K

  Pressure of configuration =         0.000 GPa

  Fractional coordinates of asymmetric unit :

   No.  Atomic       x           y          z         Charge      Occupancy
        Label      (Frac)      (Frac)     (Frac)        (e)         (Frac)
      1 O     c    0.000000    0.333330    0.833330    -2.00000    1.000000
      2 O     c    0.666670 *  0.666670 *  0.000000 *  -2.00000    1.000000
      3 O     c    0.333330 *  0.666670 *  0.166670 *  -2.00000    1.000000
      4 O     c    0.333330 *  0.000000 *  0.166670 *  -2.00000    1.000000
      5 O     c    0.333330 *  0.333330 *  0.166670 *  -2.00000    1.000000
      6 O     c    0.333330 *  0.333330 *  0.833330 *  -2.00000    1.000000
      7 O     c    0.333330 *  0.000000 *  0.500000 *  -2.00000    1.000000
      8 O     c    0.666670 *  0.000000 *  0.000000 *  -2.00000    1.000000
      9 O     c    0.666670 *  0.000000 *  0.166670 *  -2.00000    1.000000
     10 Sr    c    0.500000 *  0.833330 *  0.916670 *   2.00000    1.000000
     11 Sr    c    0.166670 *  0.500000 *  0.916670 *   2.00000    1.000000
     12 Sr    c    0.166670 *  0.833330 *  0.416670 *   2.00000    1.000000
     13 Ti    c    0.833330 *  0.500000 *  0.416670 *   4.00000    1.000000
     14 Ti    c    0.166670 *  0.166670 *  0.916670 *   4.00000    1.000000
     15 Ti    c    0.833330 *  0.833330 *  0.583330 *   4.00000    1.000000

*  General input information                                                   *

  Species output for all configurations :

  Species    Type    Atomic    Atomic    Charge       Radii (Angs)     Library
                     Number     Mass       (e)     Cova   Ionic  VDW   Symbol
    O        Core        8      16.00  -2.000000   0.730  0.000  1.360
    Sr       Core       38      87.62   2.000000   1.120  0.000  1.670
    Ti       Core       22      47.88   4.000000   1.470  0.000  2.190

  Lattice summation method               =    Ewald          (3-D)
                                         =    Parry          (2-D)
                                         =    Saunders et al (1-D)
  Accuracy factor for lattice sums       =   12.000

  Time limit = Infinity

  Maximum range for interatomic potentials =    100000.000000 Angstroms

  General interatomic potentials :

Atom  Types   Potential      Parameter       Value         Units   Cutoffs(Ang)
  1     2                                                            Min /  Max
O    c Sr   c Buckingham    Buckingham A     1952.3900    eV        0.000 10.000
                            Buckingham rho  0.33685000    Ang
                            Buckingham C     19.220000    eV*Ang^6
O    c Ti   c Buckingham    Buckingham A     4590.7279    eV        0.000 10.000
                            Buckingham rho  0.26100000    Ang
                            Buckingham C     0.0000000    eV*Ang^6
O    c O    c Buckingham    Buckingham A     1388.7700    eV        0.000 10.000
                            Buckingham rho  0.36262000    Ang
                            Buckingham C     175.00000    eV*Ang^6
 Calling ------OPTIONS------

*  Output for configuration   1                                                *

  Components of energy :

  Interatomic potentials     =          86.73882635 eV
  Monopole - monopole (real) =         -15.03500613 eV
  Monopole - monopole (recip)=        -125.05826005 eV
  Monopole - monopole (total)=        -140.09326618 eV
  Total lattice energy       =         -53.35443983 eV
  Total lattice energy       =           -5147.8878 kJ/(mole unit cells)

  Number of variables =       48

  Maximum number of calculations  =          1000
  Maximum Hessian update interval =            10
  Maximum step size               =   1.000000000
  Maximum parameter tolerance     =   0.000010000
  Maximum function  tolerance     =   0.000010000
  Maximum gradient  tolerance     =   0.001000000
  Maximum gradient  component     =   0.010000000

  Cell parameters to be optimised using strains

  Conjugate gradient optimiser to be used

  Lower half triangular hessian to be used

  Start of bulk optimisation :

 Perform trimming
 ALPHA BEFORE:    1.0000000000000000
 XC BEFORE:   0.66666999999995369
  ** Opt : line minimisation
left   ...       0.00000000     -53.35443983
centre ...       0.25000000    -118.66801073
right  ...       0.50000000    -168.59695500

left   ...       0.00000000     -53.35443983
centre ...       0.25000000    -118.66801073
right  ...       0.50000000    -168.59695500
new    ...       1.18634475    -253.88567143

__s__    ...       0.68634475

[...]

 ALPHA AFTER:    1.8036865373670468
 XC AFTER:   0.68808186804015337
 SANITY CHECK:    1.8036865373670481
 DIRECTION dim            1  value    1.1871169184117710E-002
 DIRECTION dim            2  value   -2.2883700459662395E-002
 DIRECTION dim            3  value   -2.3843091545488485E-002
 DIRECTION dim            4  value   -8.2238287666695099E-003
 DIRECTION dim            5  value   -3.9216727748924299E-003
 DIRECTION dim            6  value    1.9955267197757001E-002
 DIRECTION dim            7  value   -2.0237226194232769E-002
 DIRECTION dim            8  value    6.6049966713979799E-004
 DIRECTION dim            9  value    1.4197310029540061E-002
 DIRECTION dim           10  value   -7.1451370335926792E-003
 DIRECTION dim           11  value    3.2612025758721620E-003
 DIRECTION dim           12  value    1.2260873951347355E-002
 DIRECTION dim           13  value    1.4514070341848052E-002
 DIRECTION dim           14  value   -1.1148518403830682E-002
 DIRECTION dim           15  value   -3.9152042157776283E-002
 DIRECTION dim           16  value    6.0709968026708078E-003
 DIRECTION dim           17  value    3.3187647077868995E-003
 DIRECTION dim           18  value    3.6379535616036976E-002
 DIRECTION dim           19  value    1.1840325684096299E-002
 DIRECTION dim           20  value    2.1354431054224680E-002
 DIRECTION dim           21  value   -5.0376108909605075E-002
 DIRECTION dim           22  value    2.1223420581088611E-002
 DIRECTION dim           23  value    1.9940538609815412E-003
 DIRECTION dim           24  value    4.9226201647651749E-002
 DIRECTION dim           25  value   -8.1460482237406661E-003
 DIRECTION dim           26  value   -1.6911630902901088E-003
 DIRECTION dim           27  value    1.3213261012819368E-002
 DIRECTION dim           28  value   -2.7755416317822707E-004
 DIRECTION dim           29  value    2.8998364746560645E-002
 DIRECTION dim           30  value    6.6904221405136688E-002
 DIRECTION dim           31  value    5.0356545816174231E-003
 DIRECTION dim           32  value   -9.8794437203281117E-004
 DIRECTION dim           33  value   -6.3023137286287195E-002
 DIRECTION dim           34  value   -6.2181722875826627E-003
 DIRECTION dim           35  value   -1.4502076601907344E-002
 DIRECTION dim           36  value   -8.8424783221529787E-002
 DIRECTION dim           37  value   -2.9864791676973020E-004
 DIRECTION dim           38  value   -5.2266042596527526E-003
 DIRECTION dim           39  value    6.4763041084671832E-002
 DIRECTION dim           40  value   -5.0249392620509720E-003
 DIRECTION dim           41  value    1.1961316106363374E-002
 DIRECTION dim           42  value    2.9300010253938188E-002
 DIRECTION dim           43  value    2.3483098293464778E-002
 DIRECTION dim           44  value    5.4010485140655422E-002
 DIRECTION dim           45  value   -3.3327403219015277E-002
 DIRECTION dim           46  value    1.0626043912339725E-002
 DIRECTION dim           47  value   -3.6224909656252784E-003
 DIRECTION dim           48  value    1.7212110869048096E-003
 Perform trimming
 ALPHA BEFORE:    1.8036865373670468
 XC BEFORE:   0.68808186804015337
  ** Opt : line minimisation
left   ...       0.00000000    -278.26112510
centre ...       0.45092163    -313.86530737
right  ...       0.90184327    -207.04532650

[...]

 ALPHA AFTER:   0.52706422453083079
 XC AFTER:   0.73309831896244826
 SANITY CHECK:   0.52706422453083246
 DIRECTION dim            1  value    5.5548250744406023E-002
 DIRECTION dim            2  value   -3.7178648251412955E-002
 DIRECTION dim            3  value   0.10253609832150302
 DIRECTION dim            4  value   -1.3676757816466630E-002
 DIRECTION dim            5  value    3.1435903977828231E-003
 DIRECTION dim            6  value    2.6781848317134756E-002
 DIRECTION dim            7  value   -1.2663732650097822E-002
 DIRECTION dim            8  value  -0.10588212920666289
 DIRECTION dim            9  value   -4.8862706179146915E-003
 DIRECTION dim           10  value   -7.1010564199082138E-002
 DIRECTION dim           11  value   -3.3676083933206653E-002
 DIRECTION dim           12  value   -9.3258863730767153E-002
 DIRECTION dim           13  value    3.5425894246386883E-002
 DIRECTION dim           14  value    1.2705498082609316E-002
 DIRECTION dim           15  value   -1.6440667672514811E-003
 DIRECTION dim           16  value   -1.8099613002894367E-003
 DIRECTION dim           17  value   -6.6976849161072008E-002
 DIRECTION dim           18  value   -3.7875258414754968E-002
 DIRECTION dim           19  value    5.1425608707371381E-002
 DIRECTION dim           20  value   -9.6949343079804524E-003
 DIRECTION dim           21  value   -1.6798771855187130E-002
 DIRECTION dim           22  value    8.4029830924018445E-002
 DIRECTION dim           23  value    1.0131367686270277E-002
 DIRECTION dim           24  value    5.7625384289190312E-002
 DIRECTION dim           25  value   -1.8892783922718571E-002
 DIRECTION dim           26  value    2.3492111446635588E-003
 DIRECTION dim           27  value    5.4912874855438474E-003
 DIRECTION dim           28  value    7.9233900473543745E-003
 DIRECTION dim           29  value    2.3630920676703668E-002
 DIRECTION dim           30  value   -9.2933145729835534E-002
 DIRECTION dim           31  value    2.2639489336049222E-002
 DIRECTION dim           32  value    4.6843384180249074E-002
 DIRECTION dim           33  value    7.1459141660339009E-002
 DIRECTION dim           34  value   -9.6005668796478080E-002
 DIRECTION dim           35  value   -3.8172833387397936E-002
 DIRECTION dim           36  value  -0.10910613664415038
 DIRECTION dim           37  value   -4.8794860576269411E-003
 DIRECTION dim           38  value   0.12361786491197414
 DIRECTION dim           39  value  -0.17719931731944311
 DIRECTION dim           40  value   -3.1146222236792188E-002
 DIRECTION dim           41  value    6.7164322130033732E-002
 DIRECTION dim           42  value   0.14457870789982172
 DIRECTION dim           43  value   -7.6671361877802491E-002
 DIRECTION dim           44  value    8.0398891666132302E-002
 DIRECTION dim           45  value   -7.7983865979253483E-002
 DIRECTION dim           46  value    1.3128803780864130E-002
 DIRECTION dim           47  value   -6.7279221860993096E-002
 DIRECTION dim           48  value   -7.5446596131982678E-003
 ALPHA BEFORE:   0.52706422453083079
 XC BEFORE:   0.73309831896244826
  ** Opt : line minimisation
left   ...       0.00000000    -348.67815793
centre ...       0.13176606    -366.24553655
right  ...       0.26353211    -289.68166079

[...]

 ALPHA AFTER:    1.5519919875241222
 XC AFTER:   0.83735115924009429
 SANITY CHECK:    1.5519919875225736
 DIRECTION dim            1  value   -9.1038845738278433E-005
 DIRECTION dim            2  value   -8.0377703140050192E-005
 DIRECTION dim            3  value   -1.8868080259626005E-005
 DIRECTION dim            4  value   -1.0044439783157559E-004
 DIRECTION dim            5  value    8.0598302711871025E-006
 DIRECTION dim            6  value   -3.3583656862444157E-005
 DIRECTION dim            7  value   -1.9018119698155535E-004
 DIRECTION dim            8  value   -1.1786620761588679E-004
 DIRECTION dim            9  value    3.8019757253898431E-005
 DIRECTION dim           10  value   -6.0702376713627838E-005
 DIRECTION dim           11  value   -3.5597857569621901E-005
 DIRECTION dim           12  value    8.9050232881350403E-005
 DIRECTION dim           13  value   -4.0365960180211237E-005
 DIRECTION dim           14  value   -2.4731395057233598E-005
 DIRECTION dim           15  value   -3.0198417962357166E-005
 DIRECTION dim           16  value   -7.6039935436929084E-005
 DIRECTION dim           17  value   -8.5946885442129238E-006
 DIRECTION dim           18  value   -6.3639317637828290E-005
 DIRECTION dim           19  value   -1.0978486678333522E-005
 DIRECTION dim           20  value    2.6904570352948435E-005
 DIRECTION dim           21  value    1.9290395165938176E-005
 DIRECTION dim           22  value    7.8601888234007073E-005
 DIRECTION dim           23  value   -7.3243925799416868E-005
 DIRECTION dim           24  value    2.8338167475728495E-005
 DIRECTION dim           25  value   -2.2792572805995749E-005
 DIRECTION dim           26  value   -1.5484252410845600E-004
 DIRECTION dim           27  value   -4.2852787024502619E-005
 DIRECTION dim           28  value   -7.8113233970101528E-005
 DIRECTION dim           29  value   -1.0683964792651981E-004
 DIRECTION dim           30  value   -1.9266913583580251E-005
 DIRECTION dim           31  value   -7.3093797345371843E-005
 DIRECTION dim           32  value   -5.5453135560052948E-005
 DIRECTION dim           33  value   -3.2166745274462102E-005
 DIRECTION dim           34  value   -6.2699858886682469E-005
 DIRECTION dim           35  value   -3.2692552756659832E-005
 DIRECTION dim           36  value    1.0946363923550468E-005
 DIRECTION dim           37  value   -6.9341677847963089E-005
 DIRECTION dim           38  value   -1.0861969204847949E-004
 DIRECTION dim           39  value    7.6590400419988437E-005
 DIRECTION dim           40  value   -7.6655742961216614E-005
 DIRECTION dim           41  value   -1.2983182459992523E-005
 DIRECTION dim           42  value    7.8713396330745380E-005
 DIRECTION dim           43  value   -3.0516918999699918E-005
 DIRECTION dim           44  value   -1.0569812753894120E-005
 DIRECTION dim           45  value   -3.2630057079036279E-005
 DIRECTION dim           46  value    4.1363802231855561E-005
 DIRECTION dim           47  value    4.9839432157499004E-005
 DIRECTION dim           48  value    2.0259987290788352E-005
 Perform trimming
 ALPHA BEFORE:    1.5519919875241222
 XC BEFORE:   0.83735115924009429
  ** Opt : line minimisation
left   ...       0.00000000    -469.54363516
centre ...       0.38799800    -469.54351007
right  ...      -0.38799800    -469.54313525

[...]

 ALPHA AFTER:   -1.7710360411019916E-004
 XC AFTER:   0.83735172641348321
 SANITY CHECK:   -0.0000000000000000
 DIRECTION dim            1  value   -1.1171832800163890E-006
 DIRECTION dim            2  value   -7.8787593281021095E-006
 DIRECTION dim            3  value   -4.1679830925418842E-005
 DIRECTION dim            4  value   -4.2265796463105682E-005
 DIRECTION dim            5  value   -1.0754583573047135E-004
 DIRECTION dim            6  value   -6.0246834013648330E-005
 DIRECTION dim            7  value   -4.5105283944428831E-005
 DIRECTION dim            8  value   -4.9425680481121540E-005
 DIRECTION dim            9  value   -5.2406121372656614E-005
 DIRECTION dim           10  value   -1.9962810518715614E-004
 DIRECTION dim           11  value   -1.8812374673147754E-004
 DIRECTION dim           12  value   -1.4242314196409204E-004
 DIRECTION dim           13  value   -1.7779926416693135E-004
 DIRECTION dim           14  value    9.4671111181512173E-005
 DIRECTION dim           15  value    2.7505179737925172E-004
 DIRECTION dim           16  value    1.0110835113685421E-006
 DIRECTION dim           17  value    7.4660733248212697E-005
 DIRECTION dim           18  value    6.9322116690261388E-005
 DIRECTION dim           19  value   -5.4808704308021553E-005
 DIRECTION dim           20  value   -3.8449939812554647E-005
 DIRECTION dim           21  value    5.1191915179825523E-005
 DIRECTION dim           22  value   -5.5685672332780371E-005
 DIRECTION dim           23  value    1.9769665272404951E-005
 DIRECTION dim           24  value    1.1033187581812249E-004
 DIRECTION dim           25  value   -7.5830388464352656E-005
 DIRECTION dim           26  value   -6.9684729607600606E-005
 DIRECTION dim           27  value    5.5716803716232137E-005
 DIRECTION dim           28  value   -9.8150021929697533E-005
 DIRECTION dim           29  value   -6.9585116507396536E-005
 DIRECTION dim           30  value   -2.8242237305237735E-005
 DIRECTION dim           31  value   -7.8837022123802130E-005
 DIRECTION dim           32  value   -5.2362345467628745E-005
 DIRECTION dim           33  value    3.5872023960607849E-005
 DIRECTION dim           34  value   -3.2665021280559054E-005
 DIRECTION dim           35  value   -3.8488692536446045E-005
 DIRECTION dim           36  value    9.8049617146709004E-005
 DIRECTION dim           37  value   -5.4959247975769042E-005
 DIRECTION dim           38  value    1.5189385157901164E-006
 DIRECTION dim           39  value    4.1147716059330141E-005
 DIRECTION dim           40  value    4.8373043034915908E-005
 DIRECTION dim           41  value   -2.1502596746892741E-004
 DIRECTION dim           42  value   -3.3370576852617765E-004
 DIRECTION dim           43  value    1.5331604420265600E-005
 DIRECTION dim           44  value   -1.1670200888843019E-005
 DIRECTION dim           45  value    1.7045646315960949E-005
 DIRECTION dim           46  value    3.0831213322656370E-005
 DIRECTION dim           47  value    3.6128304327172400E-005
 DIRECTION dim           48  value    6.4430442684114412E-006
 ALPHA BEFORE:    1.4196576001861087E-003
 XC BEFORE:   0.83735172641348321
  ** Opt : line minimisation
left   ...       0.00000000    -469.54368083
centre ...       0.00035491    -469.54350600
right  ...      -0.00035491    -469.54368065

left   ...      -0.00035491    -469.54368065
centre ...       0.00000000    -469.54368083
right  ...       0.00035491    -469.54350600
new    ...      -0.00017710    -469.54368074

__s__    ...       0.00017781

 ALPHA AFTER:   -1.7710360411019916E-004
 XC AFTER:   0.83735172641348321
 SANITY CHECK:   -0.0000000000000000
 DIRECTION dim            1  value   -1.1171832800163890E-006
 DIRECTION dim            2  value   -7.8787593281021095E-006
 DIRECTION dim            3  value   -4.1679830925418842E-005
 DIRECTION dim            4  value   -4.2265796463105682E-005
 DIRECTION dim            5  value   -1.0754583573047135E-004
 DIRECTION dim            6  value   -6.0246834013648330E-005
 DIRECTION dim            7  value   -4.5105283944428831E-005
 DIRECTION dim            8  value   -4.9425680481121540E-005
 DIRECTION dim            9  value   -5.2406121372656614E-005
 DIRECTION dim           10  value   -1.9962810518715614E-004
 DIRECTION dim           11  value   -1.8812374673147754E-004
 DIRECTION dim           12  value   -1.4242314196409204E-004
 DIRECTION dim           13  value   -1.7779926416693135E-004
 DIRECTION dim           14  value    9.4671111181512173E-005
 DIRECTION dim           15  value    2.7505179737925172E-004
 DIRECTION dim           16  value    1.0110835113685421E-006
 DIRECTION dim           17  value    7.4660733248212697E-005
 DIRECTION dim           18  value    6.9322116690261388E-005
 DIRECTION dim           19  value   -5.4808704308021553E-005
 DIRECTION dim           20  value   -3.8449939812554647E-005
 DIRECTION dim           21  value    5.1191915179825523E-005
 DIRECTION dim           22  value   -5.5685672332780371E-005
 DIRECTION dim           23  value    1.9769665272404951E-005
 DIRECTION dim           24  value    1.1033187581812249E-004
 DIRECTION dim           25  value   -7.5830388464352656E-005
 DIRECTION dim           26  value   -6.9684729607600606E-005
 DIRECTION dim           27  value    5.5716803716232137E-005
 DIRECTION dim           28  value   -9.8150021929697533E-005
 DIRECTION dim           29  value   -6.9585116507396536E-005
 DIRECTION dim           30  value   -2.8242237305237735E-005
 DIRECTION dim           31  value   -7.8837022123802130E-005
 DIRECTION dim           32  value   -5.2362345467628745E-005
 DIRECTION dim           33  value    3.5872023960607849E-005
 DIRECTION dim           34  value   -3.2665021280559054E-005
 DIRECTION dim           35  value   -3.8488692536446045E-005
 DIRECTION dim           36  value    9.8049617146709004E-005
 DIRECTION dim           37  value   -5.4959247975769042E-005
 DIRECTION dim           38  value    1.5189385157901164E-006
 DIRECTION dim           39  value    4.1147716059330141E-005
 DIRECTION dim           40  value    4.8373043034915908E-005
 DIRECTION dim           41  value   -2.1502596746892741E-004
 DIRECTION dim           42  value   -3.3370576852617765E-004
 DIRECTION dim           43  value    1.5331604420265600E-005
 DIRECTION dim           44  value   -1.1670200888843019E-005
 DIRECTION dim           45  value    1.7045646315960949E-005
 DIRECTION dim           46  value    3.0831213322656370E-005
 DIRECTION dim           47  value    3.6128304327172400E-005
 DIRECTION dim           48  value    6.4430442684114412E-006

  **** Too many failed attempts to optimise ****

  Final energy =    -469.54368083 eV
  Final Gnorm  =       0.01458200

  Components of energy :

  Interatomic potentials     =          75.67373227 eV
  Monopole - monopole (real) =        -292.57538580 eV
  Monopole - monopole (recip)=        -252.64202729 eV
  Monopole - monopole (total)=        -545.21741310 eV
  Total lattice energy       =        -469.54368083 eV
  Total lattice energy       =          -45303.7876 kJ/(mole unit cells)

  Final fractional coordinates of atoms :

   No.  Atomic        x           y          z          Radius
        Label       (Frac)      (Frac)     (Frac)       (Angs)
     1  O     c     0.000000    0.333330    0.833330    0.000000
     2  O     c     0.837352    0.471549    0.181700    0.000000
     3  O     c     0.495206    0.641240    0.232592    0.000000
     4  O     c     0.081076    0.961130    0.063387    0.000000
     5  O     c     0.418583    0.313025    0.048172    0.000000
     6  O     c     0.341037    0.120395    0.768727    0.000000
     7  O     c     0.212645    0.820154    0.576379    0.000000
     8  O     c     0.635823    0.874907    0.756829    0.000000
     9  O     c     0.513586    0.198598    0.422703    0.000000
    10  Sr    c     0.706212    0.985848    0.047406    0.000000
    11  Sr    c     0.918002    0.663498    0.815673    0.000000
    12  Sr    c     0.145923    0.662760    0.325768    0.000000
    13  Ti    c     0.571014    0.414419    0.223116    0.000000
    14  Ti    c     0.205724    0.197368    0.917983    0.000000
    15  Ti    c     0.431339    0.996391    0.624306    0.000000

  Final Cartesian lattice vectors (Angstroms) :

        6.450092   -0.679137   -0.264503
       -0.679137    6.809381    0.777853
       -0.529005    1.555706    7.586092

  Final cell parameters and derivatives :

       a            6.491138 Angstrom     dE/de1(xx)    -0.015332 eV/strain
       b            6.887231 Angstrom     dE/de2(yy)     0.011670 eV/strain
       c            7.762014 Angstrom     dE/de3(zz)    -0.017046 eV/strain
       alpha       71.623363 Degrees      dE/de4(yz)    -0.030831 eV/strain
       beta        97.383874 Degrees      dE/de5(xz)    -0.036128 eV/strain
       gamma      101.889770 Degrees      dE/de6(xy)    -0.006443 eV/strain

  Primitive cell volume =           321.491657 Angs**3

  Density of cell =      2.843437 g/cm**3

  Non-primitive cell volume =           321.491657 Angs**3

  Final internal derivatives :

   No.  Atomic          a             b             c           Radius
        Label          (eV)          (eV)          (eV)        (eV/Angs)
      1 O     c       0.000000      0.000000      0.000000      0.000000
      2 O     c       0.001117      0.007879      0.041680      0.000000
      3 O     c       0.042266      0.107546      0.060247      0.000000
      4 O     c       0.045105      0.049426      0.052406      0.000000
      5 O     c       0.199628      0.188124      0.142423      0.000000
      6 O     c       0.177799     -0.094671     -0.275052      0.000000
      7 O     c      -0.001011     -0.074661     -0.069322      0.000000
      8 O     c       0.054809      0.038450     -0.051192      0.000000
      9 O     c       0.055686     -0.019770     -0.110332      0.000000
     10 Sr    c       0.075830      0.069685     -0.055717      0.000000
     11 Sr    c       0.098150      0.069585      0.028242      0.000000
     12 Sr    c       0.078837      0.052362     -0.035872      0.000000
     13 Ti    c       0.032665      0.038489     -0.098050      0.000000
     14 Ti    c       0.054959     -0.001519     -0.041148      0.000000
     15 Ti    c      -0.048373      0.215026      0.333706      0.000000
  Maximum abs         0.199628      0.215026      0.333706      0.000000

  Time to end of optimisation =       1.1869 seconds

 Exiting ------OPTIONS------

  Timing analysis for GULP :

  Task / Subroutine                                          Time (Seconds)
  Calculation of reciprocal space energy and derivatives          0.0762
  Calculation of real space energy and derivatives                1.0864
  Global summation overhead                                       0.0004

  Job Finished at 13:26.27 21st February   2020