  Job Started  at 13:26.37 21st February   2020

  Number of CPUs =     1

  Total number of configurations input =      1

*  Input for Configuration =   1                                               *

  Formula = O9Sr3Ti3

  Number of irreducible atoms/shells =      15

  Total number atoms/shells =      15

  Dimensionality = 3               :  Bulk

  Cartesian lattice vectors (Angstroms) :

        4.000000    0.000000    0.000000
        0.000000    4.000000    0.000000
        0.000000    0.000000    8.000000

  Cell parameters (Angstroms/Degrees):

  a =       4.0000    alpha =  90.0000
  b =       4.0000    beta  =  90.0000
  c =       8.0000    gamma =  90.0000

  Initial cell volume =         128.000000 Angs**3

  Temperature of configuration =  0.000     K

  Pressure of configuration =         0.000 GPa

  Fractional coordinates of asymmetric unit :

   No.  Atomic       x           y          z         Charge      Occupancy
        Label      (Frac)      (Frac)     (Frac)        (e)         (Frac)
      1 O     c    0.500000    0.500000    0.750000    -2.00000    1.000000
      2 O     c    0.500000 *  0.000000 *  0.750000 *  -2.00000    1.000000
      3 O     c    0.000000 *  0.500000 *  0.750000 *  -2.00000    1.000000
      4 O     c    0.000000 *  0.500000 *  0.000000 *  -2.00000    1.000000
      5 O     c    0.000000 *  0.000000 *  0.250000 *  -2.00000    1.000000
      6 O     c    0.500000 *  0.000000 *  0.250000 *  -2.00000    1.000000
      7 O     c    0.500000 *  0.500000 *  0.250000 *  -2.00000    1.000000
      8 O     c    0.500000 *  0.500000 *  0.500000 *  -2.00000    1.000000
      9 O     c    0.500000 *  0.000000 *  0.500000 *  -2.00000    1.000000
     10 Sr    c    0.250000 *  0.750000 *  0.375000 *   2.00000    1.000000
     11 Sr    c    0.250000 *  0.750000 *  0.875000 *   2.00000    1.000000
     12 Sr    c    0.250000 *  0.250000 *  0.625000 *   2.00000    1.000000
     13 Ti    c    0.250000 *  0.750000 *  0.625000 *   4.00000    1.000000
     14 Ti    c    0.750000 *  0.250000 *  0.875000 *   4.00000    1.000000
     15 Ti    c    0.750000 *  0.750000 *  0.375000 *   4.00000    1.000000

*  General input information                                                   *

  Species output for all configurations :

  Species    Type    Atomic    Atomic    Charge       Radii (Angs)     Library
                     Number     Mass       (e)     Cova   Ionic  VDW   Symbol
    O        Core        8      16.00  -2.000000   0.730  0.000  1.360
    Sr       Core       38      87.62   2.000000   1.120  0.000  1.670
    Ti       Core       22      47.88   4.000000   1.470  0.000  2.190

  Lattice summation method               =    Ewald          (3-D)
                                         =    Parry          (2-D)
                                         =    Saunders et al (1-D)
  Accuracy factor for lattice sums       =   12.000

  Time limit = Infinity

  Maximum range for interatomic potentials =    100000.000000 Angstroms

  General interatomic potentials :

Atom  Types   Potential      Parameter       Value         Units   Cutoffs(Ang)
  1     2                                                            Min /  Max
O    c Sr   c Buckingham    Buckingham A     1952.3900    eV        0.000 10.000
                            Buckingham rho  0.33685000    Ang
                            Buckingham C     19.220000    eV*Ang^6
O    c Ti   c Buckingham    Buckingham A     4590.7279    eV        0.000 10.000
                            Buckingham rho  0.26100000    Ang
                            Buckingham C     0.0000000    eV*Ang^6
O    c O    c Buckingham    Buckingham A     1388.7700    eV        0.000 10.000
                            Buckingham rho  0.36262000    Ang
                            Buckingham C     175.00000    eV*Ang^6
 Calling ------OPTIONS------

*  Output for configuration   1                                                *

  Components of energy :

  Interatomic potentials     =         283.74069147 eV
  Monopole - monopole (real) =        -200.67401279 eV
  Monopole - monopole (recip)=        -313.23454466 eV
  Monopole - monopole (total)=        -513.90855745 eV
  Total lattice energy       =        -230.16786598 eV
  Total lattice energy       =          -22207.6806 kJ/(mole unit cells)

  Number of variables =       48

  Maximum number of calculations  =          1000
  Maximum Hessian update interval =            10
  Maximum step size               =   1.000000000
  Maximum parameter tolerance     =   0.000010000
  Maximum function  tolerance     =   0.000010000
  Maximum gradient  tolerance     =   0.001000000
  Maximum gradient  component     =   0.010000000

  Cell parameters to be optimised using strains

  Conjugate gradient optimiser to be used

  Lower half triangular hessian to be used

  Start of bulk optimisation :

 Perform trimming
 ALPHA BEFORE:    1.0000000000000000
 XC BEFORE:   0.50000000000000000
  ** Opt : line minimisation
left   ...       0.00000000    -230.16786598
centre ...       0.25000000    -291.31288697
right  ...       0.50000000    -323.60564679

left   ...       0.00000000    -230.16786598
centre ...       0.25000000    -291.31288697
right  ...       0.50000000    -323.60564679
new    ...       0.65481134    -333.87884266

__s__    ...       0.15481134

[...]

 ALPHA AFTER:   0.92605424545865089
 XC AFTER:   0.52089963337402756
 SANITY CHECK:   0.92605424545865056
 DIRECTION dim            1  value    2.2568476389497587E-002
 DIRECTION dim            2  value   -1.3055069648517314E-003
 DIRECTION dim            3  value    2.2448690421472572E-002
 DIRECTION dim            4  value   -2.2568476389497584E-002
 DIRECTION dim            5  value    1.3055069648517275E-003
 DIRECTION dim            6  value   -4.4813349452158369E-002
 DIRECTION dim            7  value   -1.3416645871908703E-002
 DIRECTION dim            8  value   -1.2332566993782179E-002
 DIRECTION dim            9  value    3.2916138704582364E-003
 DIRECTION dim           10  value   -1.3416645871908706E-002
 DIRECTION dim           11  value    7.8463235527371795E-003
 DIRECTION dim           12  value    4.5190925505778192E-003
 DIRECTION dim           13  value    1.3416645871908694E-002
 DIRECTION dim           14  value    7.8463235527371691E-003
 DIRECTION dim           15  value   -3.5530323597243389E-002
 DIRECTION dim           16  value    1.3416645871908706E-002
 DIRECTION dim           17  value   -7.8463235527371812E-003
 DIRECTION dim           18  value   -2.9111927386237666E-002
 DIRECTION dim           19  value    2.2568476389497581E-002
 DIRECTION dim           20  value    5.7917504058967277E-003
 DIRECTION dim           21  value    3.0584246820116460E-002
 DIRECTION dim           22  value    2.2568476389497598E-002
 DIRECTION dim           23  value   -5.7917504058967355E-003
 DIRECTION dim           24  value    4.3421039242128132E-002
 DIRECTION dim           25  value   -3.3039655425651536E-002
 DIRECTION dim           26  value   -1.1776686001005657E-002
 DIRECTION dim           27  value   -6.4014734102805754E-002
 DIRECTION dim           28  value    1.1452012886827298E-003
 DIRECTION dim           29  value    2.2408170713328561E-002
 DIRECTION dim           30  value   0.12780364237674338
 DIRECTION dim           31  value   -3.3039655425651501E-002
 DIRECTION dim           32  value   -1.1013218475217190E-002
 DIRECTION dim           33  value   -4.1816126889574902E-002
 DIRECTION dim           34  value    9.5006847674399906E-003
 DIRECTION dim           35  value   -3.1668949224800025E-003
 DIRECTION dim           36  value    3.1204617379028361E-004
 DIRECTION dim           37  value   -2.7713196058724845E-003
 DIRECTION dim           38  value    5.4100166430025133E-003
 DIRECTION dim           39  value    8.0578264370272545E-002
 DIRECTION dim           40  value   -9.5006847674400097E-003
 DIRECTION dim           41  value    1.3193485185650068E-003
 DIRECTION dim           42  value  -0.11370246860800651
 DIRECTION dim           43  value   0.10641042372224095
 DIRECTION dim           44  value   0.11938636541325774
 DIRECTION dim           45  value    8.7045512930933280E-002
 DIRECTION dim           46  value    2.6785861345274601E-003
 DIRECTION dim           47  value   -3.4183656126954148E-003
 DIRECTION dim           48  value    2.9036573873909660E-005
 Perform trimming
 ALPHA BEFORE:   0.92605424545865089
 XC BEFORE:   0.52089963337402756
  ** Opt : line minimisation
left   ...       0.00000000    -340.24616919
centre ...       0.23151356    -386.54672983
right  ...       0.46302712    -388.34292258

[...]

 ALPHA AFTER:   0.35661421101815116
 XC AFTER:   0.52059092676234520
 SANITY CHECK:   0.35661421101805291
 DIRECTION dim            1  value   -8.6565987037105394E-004
 DIRECTION dim            2  value   -2.6808058083782663E-003
 DIRECTION dim            3  value   0.15369827663159655
 DIRECTION dim            4  value    1.0964793565814758E-002
 DIRECTION dim            5  value    2.2999594775534926E-002
 DIRECTION dim            6  value    1.8214945489622509E-002
 DIRECTION dim            7  value   -2.2016144596575159E-002
 DIRECTION dim            8  value   -1.6623269060871419E-002
 DIRECTION dim            9  value    6.7200196794705985E-002
 DIRECTION dim           10  value   -1.5553714176589907E-002
 DIRECTION dim           11  value    5.1867191702075544E-002
 DIRECTION dim           12  value   -4.8634741501927196E-002
 DIRECTION dim           13  value   -1.3704946013630385E-003
 DIRECTION dim           14  value    1.3906549582459998E-002
 DIRECTION dim           15  value  -0.10710217542203603
 DIRECTION dim           16  value    1.2051673953440296E-002
 DIRECTION dim           17  value   -1.7408241449977609E-002
 DIRECTION dim           18  value   -8.4873524961349214E-002
 DIRECTION dim           19  value    1.4235993419990539E-002
 DIRECTION dim           20  value    3.7929124315891516E-002
 DIRECTION dim           21  value  -0.14928931126735615
 DIRECTION dim           22  value    2.6067711898314996E-002
 DIRECTION dim           23  value   -4.1425766897701333E-002
 DIRECTION dim           24  value  -0.11071207656684845
 DIRECTION dim           25  value    1.2140547986215161E-002
 DIRECTION dim           26  value   -4.7036155916675454E-002
 DIRECTION dim           27  value    7.9813481528683880E-002
 DIRECTION dim           28  value    3.7115431695488324E-002
 DIRECTION dim           29  value    4.0234547721723767E-002
 DIRECTION dim           30  value   -2.2870221622307940E-003
 DIRECTION dim           31  value   -5.1663781974445003E-002
 DIRECTION dim           32  value   -7.9058030395372670E-003
 DIRECTION dim           33  value   -1.2392230460944275E-002
 DIRECTION dim           34  value    5.3132435989272697E-002
 DIRECTION dim           35  value   -2.0331214303163737E-002
 DIRECTION dim           36  value   0.10504945032555704
 DIRECTION dim           37  value   -4.1820441729864141E-002
 DIRECTION dim           38  value   -6.4147083302530279E-003
 DIRECTION dim           39  value  -0.12009574940530640
 DIRECTION dim           40  value   -1.7460793247476871E-002
 DIRECTION dim           41  value   -1.3495187923916638E-002
 DIRECTION dim           42  value    5.3449145181728892E-002
 DIRECTION dim           43  value   0.14472979785931755
 DIRECTION dim           44  value   0.17963915264881114
 DIRECTION dim           45  value    6.7572459737768348E-002
 DIRECTION dim           46  value    2.6541173226372417E-003
 DIRECTION dim           47  value   -2.2842456345100668E-004
 DIRECTION dim           48  value   -1.4473915466415195E-003
 ALPHA BEFORE:   0.35661421101815116
 XC BEFORE:   0.52059092676234520
  ** Opt : line minimisation
left   ...       0.00000000    -392.10925495
centre ...       0.08915355    -399.51367342
right  ...       0.17830711    -405.09719178

[...]

 ALPHA AFTER:   0.52392859759077870
 XC AFTER:   0.49983578083674207
 SANITY CHECK:   0.52392859759301580
 DIRECTION dim            1  value    3.0951899693157854E-005
 DIRECTION dim            2  value   -9.4140529871380554E-006
 DIRECTION dim            3  value   -1.0320946408539492E-005
 DIRECTION dim            4  value   -5.4934575831344800E-006
 DIRECTION dim            5  value   -1.3579452975674987E-005
 DIRECTION dim            6  value   -1.3501117855183967E-005
 DIRECTION dim            7  value    3.3194137233015690E-005
 DIRECTION dim            8  value   -9.3665566714245984E-006
 DIRECTION dim            9  value    1.7006742148646350E-005
 DIRECTION dim           10  value    8.8372036312200575E-006
 DIRECTION dim           11  value   -9.1083217143408260E-006
 DIRECTION dim           12  value   -1.5861826770838399E-005
 DIRECTION dim           13  value    2.7370995382728069E-005
 DIRECTION dim           14  value   -1.1135142725073660E-005
 DIRECTION dim           15  value    1.1378753073984694E-005
 DIRECTION dim           16  value    3.5312315509723535E-005
 DIRECTION dim           17  value   -1.3602979022355977E-006
 DIRECTION dim           18  value   -2.6476769456447070E-006
 DIRECTION dim           19  value    8.8055620981022127E-007
 DIRECTION dim           20  value    2.4399877813059470E-006
 DIRECTION dim           21  value    7.4477519538506978E-006
 DIRECTION dim           22  value   -1.2731182584041709E-005
 DIRECTION dim           23  value   -2.3473627877612306E-005
 DIRECTION dim           24  value   -7.7979037941500937E-006
 DIRECTION dim           25  value   -3.6714440522862601E-005
 DIRECTION dim           26  value   -1.6131026833559458E-005
 DIRECTION dim           27  value    3.1514658469615325E-006
 DIRECTION dim           28  value   -3.3919747036394216E-005
 DIRECTION dim           29  value   -1.4831307068922832E-006
 DIRECTION dim           30  value   -2.5543479615028717E-006
 DIRECTION dim           31  value    4.7486227770835967E-006
 DIRECTION dim           32  value   -9.6588672718163995E-006
 DIRECTION dim           33  value   -3.1150212338840162E-006
 DIRECTION dim           34  value   -1.1261969595934946E-005
 DIRECTION dim           35  value   -1.6804877639688629E-005
 DIRECTION dim           36  value    1.4426764120499114E-005
 DIRECTION dim           37  value    2.4555517475688586E-005
 DIRECTION dim           38  value   -1.3978668201737147E-006
 DIRECTION dim           39  value   -1.7237110992832670E-005
 DIRECTION dim           40  value    4.2308433078086343E-006
 DIRECTION dim           41  value    1.1176155720430863E-005
 DIRECTION dim           42  value   -7.5229942764368088E-006
 DIRECTION dim           43  value    4.3001467688238191E-006
 DIRECTION dim           44  value    2.2034275942508609E-005
 DIRECTION dim           45  value   -1.4744287810825885E-005
 DIRECTION dim           46  value   -3.6931645935238324E-005
 DIRECTION dim           47  value    4.2651002560706524E-007
 DIRECTION dim           48  value   -3.0466272376715055E-007
 Perform trimming
 ALPHA BEFORE:   0.52392859759077870
 XC BEFORE:   0.49983578083674207
  ** Opt : line minimisation
left   ...       0.00000000    -475.56730837
centre ...       0.13098215    -475.56730918
right  ...       0.26196430    -475.56730974

[...]

 ALPHA AFTER:   0.31976339154419342
 XC AFTER:   0.49989931114035113
 SANITY CHECK:   0.31976339154332367
 DIRECTION dim            1  value    1.8923685139765395E-005
 DIRECTION dim            2  value   -1.2967822813759334E-006
 DIRECTION dim            3  value   -8.7178529715394047E-006
 DIRECTION dim            4  value    4.9664828175670670E-006
 DIRECTION dim            5  value   -4.8245750684895775E-006
 DIRECTION dim            6  value   -1.3678552041267088E-005
 DIRECTION dim            7  value    6.9837023746331242E-006
 DIRECTION dim            8  value   -8.0807339773700461E-006
 DIRECTION dim            9  value   -1.0205174936754552E-005
 DIRECTION dim           10  value    1.5241098155565200E-005
 DIRECTION dim           11  value   -1.0057126340033808E-005
 DIRECTION dim           12  value   -6.1155928268584852E-006
 DIRECTION dim           13  value    2.5607039928696370E-005
 DIRECTION dim           14  value   -7.4055689858291533E-006
 DIRECTION dim           15  value    4.5987540718363737E-006
 DIRECTION dim           16  value    3.1036127913709131E-005
 DIRECTION dim           17  value   -4.3432383439943964E-006
 DIRECTION dim           18  value    8.4198811695032598E-006
 DIRECTION dim           19  value   -7.1462954543015131E-007
 DIRECTION dim           20  value   -1.6413946646668891E-005
 DIRECTION dim           21  value   -1.4232698397260268E-005
 DIRECTION dim           22  value   -6.4976580484713018E-006
 DIRECTION dim           23  value   -2.3468064667326462E-005
 DIRECTION dim           24  value    9.6203202393971859E-006
 DIRECTION dim           25  value   -2.0681013110471541E-005
 DIRECTION dim           26  value   -1.0006855417074755E-005
 DIRECTION dim           27  value   -5.5845175594266280E-007
 DIRECTION dim           28  value   -1.4926629151606993E-005
 DIRECTION dim           29  value   -7.2846645895904507E-006
 DIRECTION dim           30  value   -1.0709320257459448E-005
 DIRECTION dim           31  value    6.8521720726594962E-006
 DIRECTION dim           32  value   -1.3243955264454104E-005
 DIRECTION dim           33  value   -5.0735790830892710E-007
 DIRECTION dim           34  value    1.2561977384787132E-005
 DIRECTION dim           35  value   -1.2831878322411788E-005
 DIRECTION dim           36  value    4.3398422273804316E-006
 DIRECTION dim           37  value    1.3469734175059227E-005
 DIRECTION dim           38  value   -3.2102386043886590E-006
 DIRECTION dim           39  value   -2.2945869530082372E-005
 DIRECTION dim           40  value    5.8407330566642444E-009
 DIRECTION dim           41  value   -1.6134399829654982E-005
 DIRECTION dim           42  value   -3.2353385910894874E-006
 DIRECTION dim           43  value   -5.8267094798459477E-006
 DIRECTION dim           44  value   -1.9096297877130376E-005
 DIRECTION dim           45  value    2.3299014701886486E-005
 DIRECTION dim           46  value   -2.0920510977728886E-005
 DIRECTION dim           47  value   -3.6378109548627642E-009
 DIRECTION dim           48  value   -7.8863894593511086E-008
 ALPHA BEFORE:   0.31976339154419342
 XC BEFORE:   0.49989931114035113
  ** Opt : line minimisation
left   ...       0.00000000    -475.56731259
centre ...       0.07994085    -475.56731268
right  ...       0.15988170    -475.56731277

left   ...       0.00000000    -475.56731259
centre ...       0.07994085    -475.56731268
right  ...       0.15988170    -475.56731277
new    ...       0.75251711    -475.56731306

__s__    ...       0.59263541

 ALPHA AFTER:   0.75251710892876922
 XC AFTER:   0.49990717937728746
 SANITY CHECK:   0.75251710892974266
 DIRECTION dim            1  value    1.0455891092650867E-005
 DIRECTION dim            2  value   -2.5291641037245966E-006
 DIRECTION dim            3  value    1.0638379003471164E-007
 DIRECTION dim            4  value    6.6027402127857248E-006
 DIRECTION dim            5  value   -5.6304888047216663E-006
 DIRECTION dim            6  value   -1.6655180930520458E-006
 DIRECTION dim            7  value    6.0767507548865477E-006
 DIRECTION dim            8  value   -3.9741283019527408E-006
 DIRECTION dim            9  value   -1.5997295774934272E-005
 DIRECTION dim           10  value    9.3701233849450139E-006
 DIRECTION dim           11  value   -1.6472512897135005E-005
 DIRECTION dim           12  value   -6.6823790001060805E-006
 DIRECTION dim           13  value    1.5382201267330414E-005
 DIRECTION dim           14  value   -9.7438508495364987E-006
 DIRECTION dim           15  value   -6.3871098890021379E-006
 DIRECTION dim           16  value    1.8537573013861538E-005
 DIRECTION dim           17  value   -2.4354238169710305E-006
 DIRECTION dim           18  value    8.0665594485639455E-006
 DIRECTION dim           19  value    1.7225142469802857E-006
 DIRECTION dim           20  value   -1.8354989183704051E-005
 DIRECTION dim           21  value    2.9861167824778903E-006
 DIRECTION dim           22  value   -4.3709264620501736E-007
 DIRECTION dim           23  value   -1.3389555386892934E-005
 DIRECTION dim           24  value   -2.1490432254259641E-006
 DIRECTION dim           25  value   -1.0258498387339989E-005
 DIRECTION dim           26  value   -1.1961429147914883E-005
 DIRECTION dim           27  value   -1.2296485188733611E-006
 DIRECTION dim           28  value   -5.2807303073021596E-006
 DIRECTION dim           29  value   -3.6061249412968544E-006
 DIRECTION dim           30  value   -1.1895030683761035E-005
 DIRECTION dim           31  value    6.5018403730752521E-006
 DIRECTION dim           32  value   -9.7179905321807957E-006
 DIRECTION dim           33  value   -5.2742766744358479E-006
 DIRECTION dim           34  value    8.6964670206932184E-006
 DIRECTION dim           35  value   -9.8252847956094484E-006
 DIRECTION dim           36  value   -5.5162487802518866E-006
 DIRECTION dim           37  value    5.8358062800446869E-006
 DIRECTION dim           38  value   -1.0335808396644081E-005
 DIRECTION dim           39  value   -2.7806743532500940E-006
 DIRECTION dim           40  value    3.5383604805904490E-006
 DIRECTION dim           41  value   -5.7433263292877454E-007
 DIRECTION dim           42  value   -1.3184450831679354E-006
 DIRECTION dim           43  value   -5.0093651208838361E-006
 DIRECTION dim           44  value   -1.7209310008704607E-005
 DIRECTION dim           45  value    1.9557684006005962E-005
 DIRECTION dim           46  value   -1.2022347358651482E-005
 DIRECTION dim           47  value   -1.0025746987561908E-007
 DIRECTION dim           48  value    2.5826477753319398E-009

  **** Optimisation achieved ****

  Final energy =    -475.56731306 eV
  Final Gnorm  =       0.00047727

  Components of energy :

  Interatomic potentials     =          65.00975670 eV
  Monopole - monopole (real) =        -237.15349483 eV
  Monopole - monopole (recip)=        -303.42357493 eV
  Monopole - monopole (total)=        -540.57706976 eV
  Total lattice energy       =        -475.56731306 eV
  Total lattice energy       =          -45884.9760 kJ/(mole unit cells)

  Final fractional coordinates of atoms :

   No.  Atomic        x           y          z          Radius
        Label       (Frac)      (Frac)     (Frac)       (Angs)
     1  O     c     0.500000    0.500000    0.750000    0.000000
     2  O     c     0.499907    0.000087    0.750091    0.000000
     3  O     c     0.999905    0.666837    0.583395    0.000000
     4  O     c     0.999918    0.333502    0.916725    0.000000
     5  O     c     0.999885    0.000188    0.250062    0.000000
     6  O     c     0.499907    0.166875    0.083402    0.000000
     7  O     c     0.499901    0.666872    0.083375    0.000000
     8  O     c     0.499874    0.333536    0.416703    0.000000
     9  O     c     0.499876    0.833542    0.416738    0.000000
    10  Sr    c     0.999869    0.500214    0.250065    0.000000
    11  Sr    c     0.999868    0.833493    0.916728    0.000000
    12  Sr    c     0.999881    0.166826    0.583396    0.000000
    13  Ti    c     0.499906    0.666811    0.583386    0.000000
    14  Ti    c     0.499919    0.333475    0.916721    0.000000
    15  Ti    c     0.499875    0.000210    0.250060    0.000000

  Final Cartesian lattice vectors (Angstroms) :

        3.956495   -0.000000    0.000001
       -0.000000    5.539096   -0.791307
        0.000001   -1.582614    8.704289

  Final cell parameters and derivatives :

       a            3.956495 Angstrom     dE/de1(xx)     0.000324 eV/strain
       b            5.595333 Angstrom     dE/de2(yy)     0.000570 eV/strain
       c            8.846994 Angstrom     dE/de3(zz)     0.000011 eV/strain
       alpha      108.435124 Degrees      dE/de4(yz)    -0.000512 eV/strain
       beta        89.999981 Degrees      dE/de5(xz)     0.000078 eV/strain
       gamma       90.000013 Degrees      dE/de6(xy)    -0.000049 eV/strain

  Primitive cell volume =           185.803197 Angs**3

  Density of cell =      4.919944 g/cm**3

  Non-primitive cell volume =           185.803197 Angs**3

  Final internal derivatives :

   No.  Atomic          a             b             c           Radius
        Label          (eV)          (eV)          (eV)        (eV/Angs)
      1 O     c       0.000000      0.000000      0.000000      0.000000
      2 O     c       0.001045      0.004619      0.000207      0.000000
      3 O     c      -0.002630      0.003565      0.000362      0.000000
      4 O     c      -0.003203      0.003994     -0.007073      0.000000
      5 O     c       0.000434      0.000990      0.000675      0.000000
      6 O     c       0.001545      0.001789      0.002636      0.000000
      7 O     c       0.001912      0.006141      0.005017      0.000000
      8 O     c      -0.003478      0.003612     -0.000739      0.000000
      9 O     c      -0.004868      0.000814      0.004303      0.000000
     10 Sr    c      -0.003270      0.000679      0.007325      0.000000
     11 Sr    c      -0.004463      0.003681      0.000212      0.000000
     12 Sr    c      -0.002670      0.002376     -0.000465      0.000000
     13 Ti    c       0.000926      0.001700     -0.006776      0.000000
     14 Ti    c       0.001567     -0.002715      0.002644      0.000000
     15 Ti    c      -0.004418      0.007665      0.000589      0.000000
  Maximum abs         0.004868      0.007665      0.007325      0.000000

  Time to end of optimisation =       0.7816 seconds

 Exiting ------OPTIONS------

  Timing analysis for GULP :

  Task / Subroutine                                          Time (Seconds)
  Calculation of reciprocal space energy and derivatives          0.0929
  Calculation of real space energy and derivatives                0.6654
  Global summation overhead                                       0.0005

  Job Finished at 13:26.37 21st February   2020