  Job Started  at 11:58.48  4th February   2020

  Number of CPUs =     1

  Total number of configurations input =      1

*  Input for Configuration =   1                                               *

  Formula = O9Sr3Ti3

  Number of irreducible atoms/shells =      15

  Total number atoms/shells =      15

  Dimensionality = 3               :  Bulk

  Cartesian lattice vectors (Angstroms) :

        4.000000    0.000000    0.000000
        0.000000    4.000000    0.000000
        0.000000    0.000000    8.000000

  Cell parameters (Angstroms/Degrees):

  a =       4.0000    alpha =  90.0000
  b =       4.0000    beta  =  90.0000
  c =       8.0000    gamma =  90.0000

  Initial cell volume =         128.000000 Angs**3

  Temperature of configuration =  0.000     K

  Pressure of configuration =         0.000 GPa

  Fractional coordinates of asymmetric unit :

   No.  Atomic       x           y          z         Charge      Occupancy
        Label      (Frac)      (Frac)     (Frac)        (e)         (Frac)
      1 O     c    0.000000    0.500000    0.250000    -2.00000    1.000000
      2 O     c    0.500000 *  0.500000 *  0.250000 *  -2.00000    1.000000
      3 O     c    0.000000 *  0.500000 *  0.500000 *  -2.00000    1.000000
      4 O     c    0.500000 *  0.000000 *  0.500000 *  -2.00000    1.000000
      5 O     c    0.500000 *  0.500000 *  0.750000 *  -2.00000    1.000000
      6 O     c    0.000000 *  0.000000 *  0.000000 *  -2.00000    1.000000
      7 O     c    0.000000 *  0.000000 *  0.500000 *  -2.00000    1.000000
      8 O     c    0.500000 *  0.000000 *  0.000000 *  -2.00000    1.000000
      9 O     c    0.000000 *  0.500000 *  0.750000 *  -2.00000    1.000000
     10 Sr    c    0.750000 *  0.250000 *  0.375000 *   2.00000    1.000000
     11 Sr    c    0.750000 *  0.750000 *  0.875000 *   2.00000    1.000000
     12 Sr    c    0.750000 *  0.750000 *  0.125000 *   2.00000    1.000000
     13 Ti    c    0.750000 *  0.250000 *  0.875000 *   4.00000    1.000000
     14 Ti    c    0.250000 *  0.250000 *  0.125000 *   4.00000    1.000000
     15 Ti    c    0.250000 *  0.750000 *  0.125000 *   4.00000    1.000000

*  General input information                                                   *

  Species output for all configurations :

  Species    Type    Atomic    Atomic    Charge       Radii (Angs)     Library
                     Number     Mass       (e)     Cova   Ionic  VDW   Symbol
    O        Core        8      16.00  -2.000000   0.730  0.000  1.360
    Sr       Core       38      87.62   2.000000   1.120  0.000  1.670
    Ti       Core       22      47.88   4.000000   1.470  0.000  2.190

  Lattice summation method               =    Ewald          (3-D)
                                         =    Parry          (2-D)
                                         =    Saunders et al (1-D)
  Accuracy factor for lattice sums       =   12.000

  Time limit = Infinity

  Maximum range for interatomic potentials =    100000.000000 Angstroms

  General interatomic potentials :

Atom  Types   Potential      Parameter       Value         Units   Cutoffs(Ang)
  1     2                                                            Min /  Max
O    c Sr   c Buckingham    Buckingham A     1952.3900    eV        0.000 10.000
                            Buckingham rho  0.33685000    Ang
                            Buckingham C     19.220000    eV*Ang^6
O    c Ti   c Buckingham    Buckingham A     4590.7279    eV        0.000 10.000
                            Buckingham rho  0.26100000    Ang
                            Buckingham C     0.0000000    eV*Ang^6
O    c O    c Buckingham    Buckingham A     1388.7700    eV        0.000 10.000
                            Buckingham rho  0.36262000    Ang
                            Buckingham C     175.00000    eV*Ang^6
 Calling ------OPTIONS------

*  Output for configuration   1                                                *

  Components of energy :

  Interatomic potentials     =         252.05488473 eV
  Monopole - monopole (real) =        -121.78183040 eV
  Monopole - monopole (recip)=        -176.23510212 eV
  Monopole - monopole (total)=        -298.01693251 eV
  Total lattice energy       =         -45.96204778 eV
  Total lattice energy       =           -4434.6350 kJ/(mole unit cells)

  Number of variables =       48

  Maximum number of calculations  =          1000
  Maximum Hessian update interval =            10
  Maximum step size               =   1.000000000
  Maximum parameter tolerance     =   0.000010000
  Maximum function  tolerance     =   0.000010000
  Maximum gradient  tolerance     =   0.001000000
  Maximum gradient  component     =   0.010000000

  Cell parameters to be optimised using strains

  Conjugate gradient optimiser to be used

  Lower half triangular hessian to be used

  Start of bulk optimisation :

 Perform trimming
 Line minimisation2
 ALPHA BEFORE:    1.0000000000000000
  ** Opt : line minimisation
left   ...       0.00000000     -45.96204778
centre ...       0.25000000    -151.94574012
right  ...       0.50000000    -221.62406934

left   ...       0.00000000     -45.96204778
centre ...       0.25000000    -151.94574012
right  ...       0.50000000    -221.62406934
new    ...       0.85480741    -287.03404440

__s__    ...       0.35480741

[...]

 ALPHA AFTER:    1.2682182118296077
 Perform trimming
 Line minimisation2
 ALPHA BEFORE:    1.2682182118296077
  ** Opt : line minimisation
left   ...       0.00000000    -314.48515249
centre ...       0.31705455    -370.80072688
right  ...       0.63410911    -378.00898542

[...]

 ALPHA AFTER:   0.52212094790919983
 Line minimisation2
 ALPHA BEFORE:   0.52212094790919983
  ** Opt : line minimisation
left   ...       0.00000000    -379.91588132
centre ...       0.13053024    -397.25641924
right  ...       0.26106047    -408.42393032

[...]

 ALPHA AFTER:    1.2779852388869324
 Perform trimming
 Line minimisation2
 ALPHA BEFORE:    1.2779852388869324
  ** Opt : line minimisation
left   ...       0.00000000    -472.53016342
centre ...       0.31949631    -472.53016382
right  ...       0.63899262    -472.53016394

[...]

 ALPHA AFTER:    1.1881936625748510
 Line minimisation2
 ALPHA BEFORE:    1.1881936625748510
  ** Opt : line minimisation
left   ...       0.00000000    -472.53016503
centre ...       0.29704842    -472.53016532
right  ...       0.59409683    -472.53016537

left   ...       0.00000000    -472.53016503
centre ...       0.29704842    -472.53016532
right  ...       0.59409683    -472.53016537
new    ...       0.49624182    -472.53016538

__s__    ...      -0.09785501

 ALPHA AFTER:   0.49624182125072336

  **** Optimisation achieved ****

  Final energy =    -472.53016538 eV
  Final Gnorm  =       0.00052352

  Components of energy :

  Interatomic potentials     =          69.66370618 eV
  Monopole - monopole (real) =        -259.21172092 eV
  Monopole - monopole (recip)=        -282.98215064 eV
  Monopole - monopole (total)=        -542.19387156 eV
  Total lattice energy       =        -472.53016538 eV
  Total lattice energy       =          -45591.9377 kJ/(mole unit cells)

  Final fractional coordinates of atoms :

   No.  Atomic        x           y          z          Radius
        Label       (Frac)      (Frac)     (Frac)       (Angs)
     1  O     c     0.000000    0.500000    0.250000    0.000000
     2  O     c     0.401135    0.555588    0.229201    0.000000
     3  O     c     0.221025    0.592719    0.566872    0.000000
     4  O     c     0.340029    0.079144    0.509560    0.000000
     5  O     c     0.816702    0.498607    0.722332    0.000000
     6  O     c     0.119016    0.986389    0.192694    0.000000
     7  O     c     0.938922    0.023449    0.530359    0.000000
     8  O     c     0.523332    0.080408    0.037187    0.000000
     9  O     c     0.170014    0.289559    0.879786    0.000000
    10  Sr    c     0.670056    0.289477    0.379754    0.000000
    11  Sr    c     0.595486    0.909744    0.710466    0.000000
    12  Sr    c     0.744576    0.669243    0.049048    0.000000
    13  Ti    c     0.096635    0.324630    0.655322    0.000000
    14  Ti    c     0.243420    0.254439    0.104226    0.000000
    15  Ti    c     0.170024    0.789535    0.379776    0.000000

  Final Cartesian lattice vectors (Angstroms) :

        5.911644    0.064035    0.166371
        0.064035    5.207375   -0.517793
        0.332742   -1.035587    7.549586

  Final cell parameters and derivatives :

       a            5.914331 Angstrom     dE/de1(xx)     0.001109 eV/strain
       b            5.233447 Angstrom     dE/de2(yy)    -0.001974 eV/strain
       c            7.627543 Angstrom     dE/de3(zz)     0.002094 eV/strain
       alpha      103.443554 Degrees      dE/de4(yz)     0.004485 eV/strain
       beta        85.987354 Degrees      dE/de5(xz)     0.002689 eV/strain
       gamma       88.841389 Degrees      dE/de6(xy)     0.005052 eV/strain

  Primitive cell volume =           228.896328 Angs**3

  Density of cell =      3.993691 g/cm**3

  Non-primitive cell volume =           228.896328 Angs**3

  Final internal derivatives :

   No.  Atomic          a             b             c           Radius
        Label          (eV)          (eV)          (eV)        (eV/Angs)
      1 O     c       0.000000      0.000000      0.000000      0.000000
      2 O     c       0.000383     -0.001725      0.001344      0.000000
      3 O     c       0.004396     -0.000680      0.000549      0.000000
      4 O     c       0.001573     -0.002995      0.005658      0.000000
      5 O     c      -0.000288     -0.006564     -0.003185      0.000000
      6 O     c      -0.002549      0.000348     -0.004061      0.000000
      7 O     c       0.004461     -0.005947      0.006612      0.000000
      8 O     c      -0.002754     -0.000984     -0.004127      0.000000
      9 O     c       0.000716      0.001644      0.002533      0.000000
     10 Sr    c       0.005776     -0.004519     -0.000316      0.000000
     11 Sr    c       0.004069     -0.001269      0.000582      0.000000
     12 Sr    c       0.003752     -0.003115      0.001954      0.000000
     13 Ti    c      -0.003100     -0.004241     -0.002814      0.000000
     14 Ti    c      -0.004082     -0.003286      0.005257      0.000000
     15 Ti    c      -0.000458     -0.002459     -0.009652      0.000000
  Maximum abs         0.005776      0.006564      0.009652      0.000000

  Time to end of optimisation =       0.7062 seconds

 Exiting ------OPTIONS------

  Timing analysis for GULP :

  Task / Subroutine                                          Time (Seconds)
  Calculation of reciprocal space energy and derivatives          0.0844
  Calculation of real space energy and derivatives                0.6060
  Global summation overhead                                       0.0004

  Job Finished at 11:58.49  4th February   2020