  Job Started  at 16:31.06  3rd February   2020

  Number of CPUs =     1

  Total number of configurations input =      1

*  Input for Configuration =   1                                               *

  Formula = O9Sr3Ti3

  Number of irreducible atoms/shells =      15

  Total number atoms/shells =      15

  Dimensionality = 3               :  Bulk

  Cartesian lattice vectors (Angstroms) :

        4.000000    0.000000    0.000000
        0.000000    4.000000    0.000000
        0.000000    0.000000    8.000000

  Cell parameters (Angstroms/Degrees):

  a =       4.0000    alpha =  90.0000
  b =       4.0000    beta  =  90.0000
  c =       8.0000    gamma =  90.0000

  Initial cell volume =         128.000000 Angs**3

  Temperature of configuration =  0.000     K

  Pressure of configuration =         0.000 GPa

  Fractional coordinates of asymmetric unit :

   No.  Atomic       x           y          z         Charge      Occupancy
        Label      (Frac)      (Frac)     (Frac)        (e)         (Frac)
      1 O     c    0.500000    0.500000    0.750000    -2.00000    1.000000
      2 O     c    0.500000 *  0.000000 *  0.750000 *  -2.00000    1.000000
      3 O     c    0.000000 *  0.500000 *  0.750000 *  -2.00000    1.000000
      4 O     c    0.000000 *  0.500000 *  0.000000 *  -2.00000    1.000000
      5 O     c    0.000000 *  0.000000 *  0.250000 *  -2.00000    1.000000
      6 O     c    0.500000 *  0.000000 *  0.250000 *  -2.00000    1.000000
      7 O     c    0.500000 *  0.500000 *  0.250000 *  -2.00000    1.000000
      8 O     c    0.500000 *  0.500000 *  0.500000 *  -2.00000    1.000000
      9 O     c    0.500000 *  0.000000 *  0.500000 *  -2.00000    1.000000
     10 Sr    c    0.250000 *  0.750000 *  0.375000 *   2.00000    1.000000
     11 Sr    c    0.250000 *  0.750000 *  0.875000 *   2.00000    1.000000
     12 Sr    c    0.250000 *  0.250000 *  0.625000 *   2.00000    1.000000
     13 Ti    c    0.250000 *  0.750000 *  0.625000 *   4.00000    1.000000
     14 Ti    c    0.750000 *  0.250000 *  0.875000 *   4.00000    1.000000
     15 Ti    c    0.750000 *  0.750000 *  0.375000 *   4.00000    1.000000

*  General input information                                                   *

  Species output for all configurations :

  Species    Type    Atomic    Atomic    Charge       Radii (Angs)     Library
                     Number     Mass       (e)     Cova   Ionic  VDW   Symbol
    O        Core        8      16.00  -2.000000   0.730  0.000  1.360
    Sr       Core       38      87.62   2.000000   1.120  0.000  1.670
    Ti       Core       22      47.88   4.000000   1.470  0.000  2.190

  Lattice summation method               =    Ewald          (3-D)
                                         =    Parry          (2-D)
                                         =    Saunders et al (1-D)
  Accuracy factor for lattice sums       =   12.000

  Time limit = Infinity

  Maximum range for interatomic potentials =    100000.000000 Angstroms

  General interatomic potentials :

Atom  Types   Potential      Parameter       Value         Units   Cutoffs(Ang)
  1     2                                                            Min /  Max
O    c Sr   c Buckingham    Buckingham A     1952.3900    eV        0.000 10.000
                            Buckingham rho  0.33685000    Ang
                            Buckingham C     19.220000    eV*Ang^6
O    c Ti   c Buckingham    Buckingham A     4590.7279    eV        0.000 10.000
                            Buckingham rho  0.26100000    Ang
                            Buckingham C     0.0000000    eV*Ang^6
O    c O    c Buckingham    Buckingham A     1388.7700    eV        0.000 10.000
                            Buckingham rho  0.36262000    Ang
                            Buckingham C     175.00000    eV*Ang^6
 Calling ------OPTIONS------

*  Output for configuration   1                                                *

  Components of energy :

  Interatomic potentials     =         283.74069147 eV
  Monopole - monopole (real) =        -200.67401279 eV
  Monopole - monopole (recip)=        -313.23454466 eV
  Monopole - monopole (total)=        -513.90855745 eV
  Total lattice energy       =        -230.16786598 eV
  Total lattice energy       =          -22207.6806 kJ/(mole unit cells)

  Number of variables =       48

  Maximum number of calculations  =          1000
  Maximum Hessian update interval =            10
  Maximum step size               =   1.000000000
  Maximum parameter tolerance     =   0.000010000
  Maximum function  tolerance     =   0.000010000
  Maximum gradient  tolerance     =   0.001000000
  Maximum gradient  component     =   0.010000000

  Cell parameters to be optimised using strains

  Conjugate gradient optimiser to be used

  Lower half triangular hessian to be used

  Minimiser to switch to BFGS with exact hessian
  When gradient norm is less than     0.100000

  Start of bulk optimisation :

 Perform trimming
 Line minimisation2
 ALPHA BEFORE:    1.0000000000000000
  ** Opt : line minimisation
left   ...       0.00000000    -230.16786598
centre ...       0.25000000    -291.31288697
right  ...       0.50000000    -323.60564679

left   ...       0.00000000    -230.16786598
centre ...       0.25000000    -291.31288697
right  ...       0.50000000    -323.60564679
new    ...       0.65481134    -333.87884266

__s__    ...       0.15481134

[...]

 ALPHA AFTER:   0.92605424545865089
 Perform trimming
 Line minimisation2
 ALPHA BEFORE:   0.92605424545865089
  ** Opt : line minimisation
left   ...       0.00000000    -340.24616919
centre ...       0.23151356    -386.54672983
right  ...       0.46302712    -388.34292258

[...]

 ALPHA AFTER:   0.35661421101815116
 Line minimisation2
 ALPHA BEFORE:   0.35661421101815116
  ** Opt : line minimisation
left   ...       0.00000000    -392.10925495
centre ...       0.08915355    -399.51367342
right  ...       0.17830711    -405.09719178

[...]

 ALPHA AFTER:   0.73594391581416829
 Perform trimming
 Line minimisation2
 ALPHA BEFORE:   0.73594391581416829
  ** Opt : line minimisation
left   ...       0.00000000    -469.86754262
centre ...       0.18398598    -469.89518162
right  ...       0.36797196    -469.90685567

[...]

 ALPHA AFTER:   0.50801031954614273
  ** Hessian calculated **
 Line minimisation2
 ALPHA BEFORE:    1.0000000000000000
  ** Opt : line minimisation
left   ...       0.00000000    -470.17776756
centre ...       0.25000000    -470.18382404
right  ...       0.50000000    -470.18979735

[...]

 ALPHA AFTER:   0.25275931455945150
  ** Hessian calculated **
 Line minimisation2
 ALPHA BEFORE:    1.0000000000000000
  ** Opt : line minimisation
left   ...       0.00000000    -470.37837079
centre ...       0.25000000    -470.37835240
right  ...      -0.25000000    -470.37836970

[...]

 ALPHA AFTER:   0.11422558280338704
 Line minimisation2
 ALPHA BEFORE:   0.10670402429916200
  ** Opt : line minimisation
left   ...       0.00000000    -470.37837122
centre ...       0.02667601    -470.37837131
right  ...       0.05335201    -470.37837140

[...]

left   ...       0.04027889    -470.37837136
centre ...       0.05335201    -470.37837140
right  ...       0.09583391    -470.37835233
new    ...       0.04702647    -470.37837138

__s__    ...       0.00674758

 ALPHA AFTER:    5.3352012149580998E-002

  **** Optimisation achieved ****

  Final energy =    -470.37837140 eV
  Final Gnorm  =       0.00065388

  Components of energy :

  Interatomic potentials     =          70.68362945 eV
  Monopole - monopole (real) =        -257.27716664 eV
  Monopole - monopole (recip)=        -283.78483422 eV
  Monopole - monopole (total)=        -541.06200085 eV
  Total lattice energy       =        -470.37837140 eV
  Total lattice energy       =          -45384.3224 kJ/(mole unit cells)

  Final fractional coordinates of atoms :

   No.  Atomic        x           y          z          Radius
        Label       (Frac)      (Frac)     (Frac)       (Angs)
     1  O     c     0.500000    0.500000    0.750000    0.000000
     2  O     c     0.475932    0.013666    0.768827    0.000000
     3  O     c     0.090622    0.656624    0.623997    0.000000
     4  O     c     0.822027    0.323517    0.954548    0.000000
     5  O     c     0.780745    0.957052    0.237078    0.000000
     6  O     c     0.373398    0.152592    0.108724    0.000000
     7  O     c     0.368760    0.637354    0.086219    0.000000
     8  O     c     0.590900    0.597470    0.419356    0.000000
     9  O     c     0.295109    0.979597    0.439291    0.000000
    10  Sr    c     0.979359    0.479192    0.263006    0.000000
    11  Sr    c     0.972994    0.829127    0.937289    0.000000
    12  Sr    c     0.900688    0.196836    0.586378    0.000000
    13  Ti    c     0.402840    0.722286    0.608967    0.000000
    14  Ti    c     0.496649    0.325341    0.934287    0.000000
    15  Ti    c     0.467125    0.923381    0.240277    0.000000

  Final Cartesian lattice vectors (Angstroms) :

        5.606263    0.138773    0.093928
        0.138773    5.242444   -0.541700
        0.187855   -1.083399    7.840646

  Final cell parameters and derivatives :

       a            5.608767 Angstrom     dE/de1(xx)    -0.007847 eV/strain
       b            5.272184 Angstrom     dE/de2(yy)     0.003125 eV/strain
       c            7.917372 Angstrom     dE/de3(zz)     0.003557 eV/strain
       alpha      103.720920 Degrees      dE/de4(yz)    -0.000895 eV/strain
       beta        87.884446 Degrees      dE/de5(xz)     0.000618 eV/strain
       gamma       87.180375 Degrees      dE/de6(xy)     0.000002 eV/strain

  Primitive cell volume =           226.878753 Angs**3

  Density of cell =      4.029206 g/cm**3

  Non-primitive cell volume =           226.878753 Angs**3

  Final internal derivatives :

   No.  Atomic          a             b             c           Radius
        Label          (eV)          (eV)          (eV)        (eV/Angs)
      1 O     c       0.000000      0.000000      0.000000      0.000000
      2 O     c       0.003589     -0.004353     -0.000343      0.000000
      3 O     c      -0.007847     -0.003265      0.003510      0.000000
      4 O     c       0.008345      0.005089     -0.005614      0.000000
      5 O     c      -0.008155      0.000018      0.001405      0.000000
      6 O     c       0.000869      0.000179     -0.002630      0.000000
      7 O     c      -0.004398      0.004402      0.009547      0.000000
      8 O     c       0.008749      0.001713     -0.008854      0.000000
      9 O     c       0.004423      0.004362     -0.007886      0.000000
     10 Sr    c      -0.002258     -0.000403     -0.002762      0.000000
     11 Sr    c      -0.001053     -0.000142      0.005311      0.000000
     12 Sr    c      -0.002798     -0.000778      0.002184      0.000000
     13 Ti    c      -0.006406      0.002910     -0.000262      0.000000
     14 Ti    c       0.001188     -0.003949      0.005421      0.000000
     15 Ti    c       0.003258     -0.004067      0.003620      0.000000
  Maximum abs         0.008749      0.005089      0.009547      0.000000

  Time to end of optimisation =       0.3625 seconds

 Exiting ------OPTIONS------

  Timing analysis for GULP :

  Task / Subroutine                                          Time (Seconds)
  Calculation of reciprocal space energy and derivatives          0.0457
  Calculation of real space energy and derivatives                0.3043
  Global summation overhead                                       0.0002

  Job Finished at 16:31.06  3rd February   2020