  Job Started  at 16:31.59  3rd February   2020

  Number of CPUs =     1

  Total number of configurations input =      1

*  Input for Configuration =   1                                               *

  Formula = O9Sr3Ti3

  Number of irreducible atoms/shells =      15

  Total number atoms/shells =      15

  Dimensionality = 3               :  Bulk

  Cartesian lattice vectors (Angstroms) :

        4.000000    0.000000    0.000000
        0.000000    6.000000    0.000000
        0.000000    0.000000   10.000000

  Cell parameters (Angstroms/Degrees):

  a =       4.0000    alpha =  90.0000
  b =       6.0000    beta  =  90.0000
  c =      10.0000    gamma =  90.0000

  Initial cell volume =         240.000000 Angs**3

  Temperature of configuration =  0.000     K

  Pressure of configuration =         0.000 GPa

  Fractional coordinates of asymmetric unit :

   No.  Atomic       x           y          z         Charge      Occupancy
        Label      (Frac)      (Frac)     (Frac)        (e)         (Frac)
      1 O     c    0.000000    0.333330    0.800000    -2.00000    1.000000
      2 O     c    0.000000 *  0.000000 *  0.800000 *  -2.00000    1.000000
      3 O     c    0.500000 *  0.666670 *  0.600000 *  -2.00000    1.000000
      4 O     c    0.000000 *  0.666670 *  0.600000 *  -2.00000    1.000000
      5 O     c    0.000000 *  0.333330 *  0.000000 *  -2.00000    1.000000
      6 O     c    0.000000 *  0.666670 *  0.800000 *  -2.00000    1.000000
      7 O     c    0.000000 *  0.000000 *  0.200000 *  -2.00000    1.000000
      8 O     c    0.500000 *  0.333330 *  0.200000 *  -2.00000    1.000000
      9 O     c    0.000000 *  0.000000 *  0.000000 *  -2.00000    1.000000
     10 Sr    c    0.750000 *  0.166670 *  0.900000 *   2.00000    1.000000
     11 Sr    c    0.250000 *  0.166670 *  0.900000 *   2.00000    1.000000
     12 Sr    c    0.250000 *  0.166670 *  0.100000 *   2.00000    1.000000
     13 Ti    c    0.750000 *  0.166670 *  0.700000 *   4.00000    1.000000
     14 Ti    c    0.250000 *  0.166670 *  0.500000 *   4.00000    1.000000
     15 Ti    c    0.250000 *  0.166670 *  0.700000 *   4.00000    1.000000

*  General input information                                                   *

  Species output for all configurations :

  Species    Type    Atomic    Atomic    Charge       Radii (Angs)     Library
                     Number     Mass       (e)     Cova   Ionic  VDW   Symbol
    O        Core        8      16.00  -2.000000   0.730  0.000  1.360
    Sr       Core       38      87.62   2.000000   1.120  0.000  1.670
    Ti       Core       22      47.88   4.000000   1.470  0.000  2.190

  Lattice summation method               =    Ewald          (3-D)
                                         =    Parry          (2-D)
                                         =    Saunders et al (1-D)
  Accuracy factor for lattice sums       =   12.000

  Time limit = Infinity

  Maximum range for interatomic potentials =    100000.000000 Angstroms

  General interatomic potentials :

Atom  Types   Potential      Parameter       Value         Units   Cutoffs(Ang)
  1     2                                                            Min /  Max
O    c Sr   c Buckingham    Buckingham A     1952.3900    eV        0.000 10.000
                            Buckingham rho  0.33685000    Ang
                            Buckingham C     19.220000    eV*Ang^6
O    c Ti   c Buckingham    Buckingham A     4590.7279    eV        0.000 10.000
                            Buckingham rho  0.26100000    Ang
                            Buckingham C     0.0000000    eV*Ang^6
O    c O    c Buckingham    Buckingham A     1388.7700    eV        0.000 10.000
                            Buckingham rho  0.36262000    Ang
                            Buckingham C     175.00000    eV*Ang^6
 Calling ------OPTIONS------

*  Output for configuration   1                                                *

  Components of energy :

  Interatomic potentials     =         184.55920138 eV
  Monopole - monopole (real) =          -3.58671899 eV
  Monopole - monopole (recip)=        -195.13406381 eV
  Monopole - monopole (total)=        -198.72078279 eV
  Total lattice energy       =         -14.16158142 eV
  Total lattice energy       =           -1366.3761 kJ/(mole unit cells)

  Number of variables =       48

  Maximum number of calculations  =          1000
  Maximum Hessian update interval =            10
  Maximum step size               =   1.000000000
  Maximum parameter tolerance     =   0.000010000
  Maximum function  tolerance     =   0.000010000
  Maximum gradient  tolerance     =   0.001000000
  Maximum gradient  component     =   0.010000000

  Cell parameters to be optimised using strains

  Conjugate gradient optimiser to be used

  Lower half triangular hessian to be used

  Minimiser to switch to BFGS with exact hessian
  When gradient norm is less than     0.100000

  Start of bulk optimisation :

 Perform trimming
 Line minimisation2
 ALPHA BEFORE:    1.0000000000000000
  ** Opt : line minimisation
left   ...       0.00000000     -14.16158142
centre ...       0.25000000     -98.43534940
right  ...       0.50000000    -153.15380047

left   ...       0.00000000     -14.16158142
centre ...       0.25000000     -98.43534940
right  ...       0.50000000    -153.15380047
new    ...       0.83784778    -201.61286615

__s__    ...       0.33784778

[...]

 ALPHA AFTER:    1.1926492624666976
 Perform trimming
 Line minimisation2
 ALPHA BEFORE:    1.1926492624666976
  ** Opt : line minimisation
left   ...       0.00000000    -223.34143131
centre ...       0.29816232    -268.89893976
right  ...       0.59632463    -254.59452414

[...]

 ALPHA AFTER:   0.29356986221965864
 Line minimisation2
 ALPHA BEFORE:   0.29356986221965864
  ** Opt : line minimisation
left   ...       0.00000000    -309.62749519
centre ...       0.07339247    -323.31438798
right  ...       0.14678493    -333.77212026

[...]

 ALPHA AFTER:   0.13280053545977738
 Perform trimming
 Line minimisation2
 ALPHA BEFORE:   0.13280053545977738
  ** Opt : line minimisation
left   ...       0.00000000    -463.14330719
centre ...       0.03320013    -463.15067546
right  ...       0.06640027    -463.15683503

[...]

 ALPHA AFTER:    6.7862810598594558E-002
  ** Hessian calculated **
 Line minimisation2
 ALPHA BEFORE:    1.0000000000000000
  ** Opt : line minimisation
left   ...       0.00000000    -463.20360814
centre ...       0.25000000    -463.21512775
right  ...       0.50000000    -463.22628232

[...]

 ALPHA AFTER:   0.53703703703703709
 Line minimisation2
 ALPHA BEFORE:   0.35802469135802473
  ** Opt : line minimisation
left   ...       0.00000000    -465.37975090
centre ...       0.08950617    -465.37958889
right  ...      -0.08950617    -465.37973763

[...]

 ALPHA AFTER:   -3.3011979937432115E-003
  ** Hessian calculated **
 Line minimisation2
 ALPHA BEFORE:    1.0000000000000000
  ** Opt : line minimisation
left   ...       0.00000000    -465.37975090
centre ...       0.25000000    -465.37972604
right  ...      -0.25000000    -465.37950462

[...]

left   ...      -0.00778654    -465.37974468
centre ...       0.00000000    -465.37975090
right  ...       0.01268860    -465.37958584
new    ...      -0.00330120    -465.37974828

__s__    ...       0.00448534

 ALPHA AFTER:   -3.3011979937432115E-003

  **** Conditions for a minimum have not been satisfied. However ****
  **** no lower point can be found - treat results with caution  ****
  **** unless gradient norm is small (less than 0.1)             ****

  Final energy =    -465.37975090 eV
  Final Gnorm  =       0.02941926

  Components of energy :

  Interatomic potentials     =          71.96940969 eV
  Monopole - monopole (real) =        -280.65263771 eV
  Monopole - monopole (recip)=        -256.69652288 eV
  Monopole - monopole (total)=        -537.34916059 eV
  Total lattice energy       =        -465.37975090 eV
  Total lattice energy       =          -44902.0320 kJ/(mole unit cells)

  Final fractional coordinates of atoms :

   No.  Atomic        x           y          z          Radius
        Label       (Frac)      (Frac)     (Frac)       (Angs)
     1  O     c     0.000000    0.333330    0.800000    0.000000
     2  O     c     0.083970    0.197184    0.621316    0.000000
     3  O     c     0.497779    0.344219    0.561352    0.000000
     4  O     c     0.996154    0.527135    0.495123    0.000000
     5  O     c     0.944434    0.706135    0.200100    0.000000
     6  O     c     0.311155    0.946514    0.757184    0.000000
     7  O     c     0.647483    0.802227    0.444716    0.000000
     8  O     c     0.242895    0.074011    0.418783    0.000000
     9  O     c     0.878275    0.460437    0.987569    0.000000
    10  Sr    c     0.880543    0.060190    0.086148    0.000000
    11  Sr    c     0.885141    0.858007    0.882023    0.000000
    12  Sr    c     0.049055    0.361591    0.303297    0.000000
    13  Ti    c     0.619456    0.320004    0.476555    0.000000
    14  Ti    c     0.149364    0.131855    0.523148    0.000000
    15  Ti    c     0.180120    0.358421    0.734607    0.000000

  Final Cartesian lattice vectors (Angstroms) :

        5.776848   -0.551571   -0.907290
       -0.827357    3.315217   -0.619634
       -2.268225   -1.032723   16.997361

  Final cell parameters and derivatives :

       a            5.873617 Angstrom     dE/de1(xx)    -0.196395 eV/strain
       b            3.472626 Angstrom     dE/de2(yy)    -0.162921 eV/strain
       c           17.179105 Angstrom     dE/de3(zz)    -0.438782 eV/strain
       alpha      101.681954 Degrees      dE/de4(yz)    -0.071482 eV/strain
       beta       106.084097 Degrees      dE/de5(xz)     0.223147 eV/strain
       gamma      107.242310 Degrees      dE/de6(xy)    -0.096098 eV/strain

  Primitive cell volume =           305.698775 Angs**3

  Density of cell =      2.990334 g/cm**3

  Non-primitive cell volume =           305.698775 Angs**3

  Final internal derivatives :

   No.  Atomic          a             b             c           Radius
        Label          (eV)          (eV)          (eV)        (eV/Angs)
      1 O     c       0.000000      0.000000      0.000000      0.000000
      2 O     c       0.085218      0.012427     -0.372007      0.000000
      3 O     c       0.100480      0.004686     -0.597048      0.000000
      4 O     c       0.005213      0.030488     -0.020430      0.000000
      5 O     c      -0.003372      0.019439     -0.049196      0.000000
      6 O     c       0.043679     -0.106043      0.126287      0.000000
      7 O     c      -0.038863      0.037965      0.075246      0.000000
      8 O     c      -0.006033      0.012474      0.125408      0.000000
      9 O     c       0.004783      0.013838      0.023903      0.000000
     10 Sr    c       0.025278     -0.002491     -0.121017      0.000000
     11 Sr    c       0.041024      0.005958     -0.108799      0.000000
     12 Sr    c       0.005471     -0.004556     -0.088375      0.000000
     13 Ti    c      -0.182284     -0.026859      0.766249      0.000000
     14 Ti    c       0.102393     -0.057029      0.482207      0.000000
     15 Ti    c      -0.227948      0.067179      0.375223      0.000000
  Maximum abs         0.227948      0.106043      0.766249      0.000000

  Time to end of optimisation =       3.1702 seconds

 Exiting ------OPTIONS------

  Timing analysis for GULP :

  Task / Subroutine                                          Time (Seconds)
  Calculation of reciprocal space energy and derivatives          0.1670
  Calculation of real space energy and derivatives                2.9690
  Calculation and manipulation of Hessian matrix                  0.0003
  Calculation of matrix inversion                                 0.0009
  Global summation overhead                                       0.0010

  Job Finished at 16:32.02  3rd February   2020