  Job Started  at 16:31.48  3rd February   2020

  Number of CPUs =     1

  Total number of configurations input =      1

*  Input for Configuration =   1                                               *

  Formula = O9Sr3Ti3

  Number of irreducible atoms/shells =      15

  Total number atoms/shells =      15

  Dimensionality = 3               :  Bulk

  Cartesian lattice vectors (Angstroms) :

        4.000000    0.000000    0.000000
        0.000000    6.000000    0.000000
        0.000000    0.000000   12.000000

  Cell parameters (Angstroms/Degrees):

  a =       4.0000    alpha =  90.0000
  b =       6.0000    beta  =  90.0000
  c =      12.0000    gamma =  90.0000

  Initial cell volume =         288.000000 Angs**3

  Temperature of configuration =  0.000     K

  Pressure of configuration =         0.000 GPa

  Fractional coordinates of asymmetric unit :

   No.  Atomic       x           y          z         Charge      Occupancy
        Label      (Frac)      (Frac)     (Frac)        (e)         (Frac)
      1 O     c    0.000000    0.333330    0.000000    -2.00000    1.000000
      2 O     c    0.000000 *  0.666670 *  0.166670 *  -2.00000    1.000000
      3 O     c    0.500000 *  0.666670 *  0.333330 *  -2.00000    1.000000
      4 O     c    0.000000 *  0.666670 *  0.666670 *  -2.00000    1.000000
      5 O     c    0.000000 *  0.333330 *  0.166670 *  -2.00000    1.000000
      6 O     c    0.000000 *  0.666670 *  0.833330 *  -2.00000    1.000000
      7 O     c    0.500000 *  0.666670 *  0.666670 *  -2.00000    1.000000
      8 O     c    0.000000 *  0.333330 *  0.500000 *  -2.00000    1.000000
      9 O     c    0.000000 *  0.000000 *  0.500000 *  -2.00000    1.000000
     10 Sr    c    0.750000 *  0.500000 *  0.250000 *   2.00000    1.000000
     11 Sr    c    0.750000 *  0.500000 *  0.916670 *   2.00000    1.000000
     12 Sr    c    0.750000 *  0.833330 *  0.750000 *   2.00000    1.000000
     13 Ti    c    0.750000 *  0.833330 *  0.083330 *   4.00000    1.000000
     14 Ti    c    0.250000 *  0.500000 *  0.916670 *   4.00000    1.000000
     15 Ti    c    0.250000 *  0.166670 *  0.250000 *   4.00000    1.000000

*  General input information                                                   *

  Species output for all configurations :

  Species    Type    Atomic    Atomic    Charge       Radii (Angs)     Library
                     Number     Mass       (e)     Cova   Ionic  VDW   Symbol
    O        Core        8      16.00  -2.000000   0.730  0.000  1.360
    Sr       Core       38      87.62   2.000000   1.120  0.000  1.670
    Ti       Core       22      47.88   4.000000   1.470  0.000  2.190

  Lattice summation method               =    Ewald          (3-D)
                                         =    Parry          (2-D)
                                         =    Saunders et al (1-D)
  Accuracy factor for lattice sums       =   12.000

  Time limit = Infinity

  Maximum range for interatomic potentials =    100000.000000 Angstroms

  General interatomic potentials :

Atom  Types   Potential      Parameter       Value         Units   Cutoffs(Ang)
  1     2                                                            Min /  Max
O    c Sr   c Buckingham    Buckingham A     1952.3900    eV        0.000 10.000
                            Buckingham rho  0.33685000    Ang
                            Buckingham C     19.220000    eV*Ang^6
O    c Ti   c Buckingham    Buckingham A     4590.7279    eV        0.000 10.000
                            Buckingham rho  0.26100000    Ang
                            Buckingham C     0.0000000    eV*Ang^6
O    c O    c Buckingham    Buckingham A     1388.7700    eV        0.000 10.000
                            Buckingham rho  0.36262000    Ang
                            Buckingham C     175.00000    eV*Ang^6
 Calling ------OPTIONS------

*  Output for configuration   1                                                *

  Components of energy :

  Interatomic potentials     =         128.82078291 eV
  Monopole - monopole (real) =         -97.95825989 eV
  Monopole - monopole (recip)=        -103.78411368 eV
  Monopole - monopole (total)=        -201.74237357 eV
  Total lattice energy       =         -72.92159066 eV
  Total lattice energy       =           -7035.8188 kJ/(mole unit cells)

  Number of variables =       48

  Maximum number of calculations  =          1000
  Maximum Hessian update interval =            10
  Maximum step size               =   1.000000000
  Maximum parameter tolerance     =   0.000010000
  Maximum function  tolerance     =   0.000010000
  Maximum gradient  tolerance     =   0.001000000
  Maximum gradient  component     =   0.010000000

  Cell parameters to be optimised using strains

  Conjugate gradient optimiser to be used

  Lower half triangular hessian to be used

  Minimiser to switch to BFGS with exact hessian
  When gradient norm is less than     0.100000

  Start of bulk optimisation :

 Perform trimming
 Line minimisation2
 ALPHA BEFORE:    1.0000000000000000
  ** Opt : line minimisation
left   ...       0.00000000     -72.92159066
centre ...       0.25000000    -157.00816721
right  ...       0.50000000    -213.33434108

left   ...       0.00000000     -72.92159066
centre ...       0.25000000    -157.00816721
right  ...       0.50000000    -213.33434108
new    ...       0.88225285    -278.39027088

__s__    ...       0.38225285

[...]

 ALPHA AFTER:    2.1481527699105571
 Perform trimming
 Line minimisation2
 ALPHA BEFORE:    2.1481527699105571
  ** Opt : line minimisation
left   ...       0.00000000  -37162.90748606
centre ...       0.53703819    -160.26053866
right  ...      -0.53703819    -307.10421332

[...]

left   ...       0.00000000*****************
centre ...       0.00000051*****************
right  ...       0.00000103*****************
new    ...       0.00000048*****************

__s__    ...      -0.00000055

[...]

 ALPHA AFTER:   -7.2978752756717810E-012
 Perform trimming
 Line minimisation2
 ALPHA BEFORE:    2.9191501102687124E-011
  ** Opt : line minimisation
left   ...       0.00000000*****************
centre ...       0.00000000    -322.16803365
right  ...      -0.00000000*****************

 ALPHA AFTER:   -7.2978752756717810E-012

  **** Conditions for a minimum have not been satisfied. However ****
  **** no lower point can be found - treat results with caution  ****
  **** unless gradient norm is small (less than 0.1)             ****

  Final energy = **************** eV
  Final Gnorm  = ****************

  Components of energy :

  Interatomic potentials     = ******************** eV
  Monopole - monopole (real) =    47666629.57073073 eV
  Monopole - monopole (recip)=        -210.30941488 eV
  Monopole - monopole (total)=    47666419.26131585 eV
  Total lattice energy       = ******************** eV
  Total lattice energy       = ******************** kJ/(mole unit cells)

  Final fractional coordinates of atoms :

   No.  Atomic        x           y          z          Radius
        Label       (Frac)      (Frac)     (Frac)       (Angs)
     1  O     c     0.000000    0.333330    0.000000    0.000000
     2  O     c     0.016052    0.692197    0.033015    0.000000
     3  O     c     0.488980    0.685322    0.249312    0.000000
     4  O     c     0.010734    0.651294    0.701619    0.000000
     5  O     c     0.011577    0.281218    0.120893    0.000000
     6  O     c     0.016052    0.692197    0.033015    0.000000
     7  O     c     0.489266    0.651248    0.730536    0.000000
     8  O     c     0.000310    0.346412    0.443793    0.000000
     9  O     c     0.000291    0.986388    0.448181    0.000000
    10  Sr    c     0.740337    0.494072    0.392943    0.000000
    11  Sr    c     0.729888    0.489481    0.837356    0.000000
    12  Sr    c     0.740160    0.880107    0.641125    0.000000
    13  Ti    c     0.755004    0.832772    0.158713    0.000000
    14  Ti    c     0.244180    0.487799    0.764293    0.000000
    15  Ti    c     0.245690    0.176399    0.451396    0.000000

  Final Cartesian lattice vectors (Angstroms) :

        4.451821   -0.007451   -0.009520
       -0.011177    6.465631    0.053212
       -0.028561    0.106424   11.263417

  Final cell parameters and derivatives :

       a            4.451837 Angstrom     dE/de1(xx) ************ eV/strain
       b            6.465860 Angstrom     dE/de2(yy) ************ eV/strain
       c           11.263956 Angstrom     dE/de3(zz) ************ eV/strain
       alpha       88.986867 Degrees      dE/de4(yz) ************ eV/strain
       beta        90.268707 Degrees      dE/de5(xz) ************ eV/strain
       gamma       90.195941 Degrees      dE/de6(xy) ************ eV/strain

  Primitive cell volume =           324.176398 Angs**3

  Density of cell =      2.819888 g/cm**3

  Non-primitive cell volume =           324.176398 Angs**3

  Final internal derivatives :

   No.  Atomic          a             b             c           Radius
        Label          (eV)          (eV)          (eV)        (eV/Angs)
      1 O     c       0.000000      0.000000      0.000000      0.000000
      2 O     c ******************************************      0.000000
      3 O     c     -27.984069    -61.955036   -166.553181      0.000000
      4 O     c       2.625000     48.551086    126.122331      0.000000
      5 O     c       8.181376     94.480228   -172.645508      0.000000
      6 O     c ******************************************      0.000000
      7 O     c     -13.255966    -12.697199    159.125284      0.000000
      8 O     c     -66.111205     43.107515   -254.002235      0.000000
      9 O     c       5.698011     25.377102   -108.514843      0.000000
     10 Sr    c      84.192555   -140.979766    278.466154      0.000000
     11 Sr    c     -36.512186      4.542179   -419.262630      0.000000
     12 Sr    c       0.119457    -20.767507    -16.891709      0.000000
     13 Ti    c     -46.571927    126.917832    391.570804      0.000000
     14 Ti    c      47.830248    -29.770185   -352.101002      0.000000
     15 Ti    c     -17.758658     65.121129    264.788696      0.000000
  Maximum abs   ******************************************      0.000000

  Time to end of optimisation =       0.1351 seconds

 Exiting ------OPTIONS------

  Timing analysis for GULP :

  Task / Subroutine                                          Time (Seconds)
  Calculation of reciprocal space energy and derivatives          0.0181
  Calculation of real space energy and derivatives                0.1072
  Global summation overhead                                       0.0001

  Job Finished at 16:31.48  3rd February   2020