  Job Started  at 13:26.45 21st February   2020

  Number of CPUs =     1

  Total number of configurations input =      1

*  Input for Configuration =   1                                               *

  Formula = O9Sr3Ti3

  Number of irreducible atoms/shells =      15

  Total number atoms/shells =      15

  Dimensionality = 3               :  Bulk

  Cartesian lattice vectors (Angstroms) :

        6.000000    0.000000    0.000000
        0.000000    6.000000    0.000000
        0.000000    0.000000   12.000000

  Cell parameters (Angstroms/Degrees):

  a =       6.0000    alpha =  90.0000
  b =       6.0000    beta  =  90.0000
  c =      12.0000    gamma =  90.0000

  Initial cell volume =         432.000000 Angs**3

  Temperature of configuration =  0.000     K

  Pressure of configuration =         0.000 GPa

  Fractional coordinates of asymmetric unit :

   No.  Atomic       x           y          z         Charge      Occupancy
        Label      (Frac)      (Frac)     (Frac)        (e)         (Frac)
      1 O     c    0.000000    0.333330    0.833330    -2.00000    1.000000
      2 O     c    0.666670 *  0.666670 *  0.000000 *  -2.00000    1.000000
      3 O     c    0.333330 *  0.666670 *  0.166670 *  -2.00000    1.000000
      4 O     c    0.333330 *  0.000000 *  0.166670 *  -2.00000    1.000000
      5 O     c    0.333330 *  0.333330 *  0.166670 *  -2.00000    1.000000
      6 O     c    0.333330 *  0.333330 *  0.833330 *  -2.00000    1.000000
      7 O     c    0.333330 *  0.000000 *  0.500000 *  -2.00000    1.000000
      8 O     c    0.666670 *  0.000000 *  0.000000 *  -2.00000    1.000000
      9 O     c    0.666670 *  0.000000 *  0.166670 *  -2.00000    1.000000
     10 Sr    c    0.500000 *  0.833330 *  0.916670 *   2.00000    1.000000
     11 Sr    c    0.166670 *  0.500000 *  0.916670 *   2.00000    1.000000
     12 Sr    c    0.166670 *  0.833330 *  0.416670 *   2.00000    1.000000
     13 Ti    c    0.833330 *  0.500000 *  0.416670 *   4.00000    1.000000
     14 Ti    c    0.166670 *  0.166670 *  0.916670 *   4.00000    1.000000
     15 Ti    c    0.833330 *  0.833330 *  0.583330 *   4.00000    1.000000

*  General input information                                                   *

  Species output for all configurations :

  Species    Type    Atomic    Atomic    Charge       Radii (Angs)     Library
                     Number     Mass       (e)     Cova   Ionic  VDW   Symbol
    O        Core        8      16.00  -2.000000   0.730  0.000  1.360
    Sr       Core       38      87.62   2.000000   1.120  0.000  1.670
    Ti       Core       22      47.88   4.000000   1.470  0.000  2.190

  Lattice summation method               =    Ewald          (3-D)
                                         =    Parry          (2-D)
                                         =    Saunders et al (1-D)
  Accuracy factor for lattice sums       =   12.000

  Time limit = Infinity

  Maximum range for interatomic potentials =    100000.000000 Angstroms

  General interatomic potentials :

Atom  Types   Potential      Parameter       Value         Units   Cutoffs(Ang)
  1     2                                                            Min /  Max
O    c Sr   c Buckingham    Buckingham A     1952.3900    eV        0.000 10.000
                            Buckingham rho  0.33685000    Ang
                            Buckingham C     19.220000    eV*Ang^6
O    c Ti   c Buckingham    Buckingham A     4590.7279    eV        0.000 10.000
                            Buckingham rho  0.26100000    Ang
                            Buckingham C     0.0000000    eV*Ang^6
O    c O    c Buckingham    Buckingham A     1388.7700    eV        0.000 10.000
                            Buckingham rho  0.36262000    Ang
                            Buckingham C     175.00000    eV*Ang^6
 Calling ------OPTIONS------

*  Output for configuration   1                                                *

  Components of energy :

  Interatomic potentials     =          86.73882635 eV
  Monopole - monopole (real) =         -15.03500613 eV
  Monopole - monopole (recip)=        -125.05826005 eV
  Monopole - monopole (total)=        -140.09326618 eV
  Total lattice energy       =         -53.35443983 eV
  Total lattice energy       =           -5147.8878 kJ/(mole unit cells)

  Number of variables =       48

  Maximum number of calculations  =          1000
  Maximum Hessian update interval =            10
  Maximum step size               =   0.001000000
  Maximum parameter tolerance     =   0.000010000
  Maximum function  tolerance     =   0.000010000
  Maximum gradient  tolerance     =   0.001000000
  Maximum gradient  component     =   0.010000000

  Cell parameters to be optimised using strains

  Conjugate gradient optimiser to be used

  Lower half triangular hessian to be used

  Minimiser to switch to BFGS with exact hessian
  When gradient norm is less than     0.500000

  Switch max step size to       0.10000000 when gnorm is less than    10.000000

  Start of bulk optimisation :

 Perform trimming
 ALPHA BEFORE:    1.0000000000000000
 XC BEFORE:   0.66666999999995369
  ** Opt : line minimisation
left   ...       0.00000000     -53.35443983
centre ...       0.00100000     -53.65256481
right  ...       0.00200000     -53.95106019

left   ...       0.00000000     -53.35443983
centre ...       0.00100000     -53.65256481
right  ...       0.00200000     -53.95106019
new    ...       0.00300000     -54.24922626

__s__    ...       0.00100000

[...]

 ALPHA AFTER:    5.0000000000000010E-003
 XC AFTER:   0.66672935584587423
 SANITY CHECK:    4.9999999999958255E-003
 DIRECTION dim            1  value    1.1871169184117710E-002
 DIRECTION dim            2  value   -2.2883700459662395E-002
 DIRECTION dim            3  value   -2.3843091545488485E-002
 DIRECTION dim            4  value   -8.2238287666695099E-003
 DIRECTION dim            5  value   -3.9216727748924299E-003
 DIRECTION dim            6  value    1.9955267197757001E-002
 DIRECTION dim            7  value   -2.0237226194232769E-002
 DIRECTION dim            8  value    6.6049966713979799E-004
 DIRECTION dim            9  value    1.4197310029540061E-002
 DIRECTION dim           10  value   -7.1451370335926792E-003
 DIRECTION dim           11  value    3.2612025758721620E-003
 DIRECTION dim           12  value    1.2260873951347355E-002
 DIRECTION dim           13  value    1.4514070341848052E-002
 DIRECTION dim           14  value   -1.1148518403830682E-002
 DIRECTION dim           15  value   -3.9152042157776283E-002
 DIRECTION dim           16  value    6.0709968026708078E-003
 DIRECTION dim           17  value    3.3187647077868995E-003
 DIRECTION dim           18  value    3.6379535616036976E-002
 DIRECTION dim           19  value    1.1840325684096299E-002
 DIRECTION dim           20  value    2.1354431054224680E-002
 DIRECTION dim           21  value   -5.0376108909605075E-002
 DIRECTION dim           22  value    2.1223420581088611E-002
 DIRECTION dim           23  value    1.9940538609815412E-003
 DIRECTION dim           24  value    4.9226201647651749E-002
 DIRECTION dim           25  value   -8.1460482237406661E-003
 DIRECTION dim           26  value   -1.6911630902901088E-003
 DIRECTION dim           27  value    1.3213261012819368E-002
 DIRECTION dim           28  value   -2.7755416317822707E-004
 DIRECTION dim           29  value    2.8998364746560645E-002
 DIRECTION dim           30  value    6.6904221405136688E-002
 DIRECTION dim           31  value    5.0356545816174231E-003
 DIRECTION dim           32  value   -9.8794437203281117E-004
 DIRECTION dim           33  value   -6.3023137286287195E-002
 DIRECTION dim           34  value   -6.2181722875826627E-003
 DIRECTION dim           35  value   -1.4502076601907344E-002
 DIRECTION dim           36  value   -8.8424783221529787E-002
 DIRECTION dim           37  value   -2.9864791676973020E-004
 DIRECTION dim           38  value   -5.2266042596527526E-003
 DIRECTION dim           39  value    6.4763041084671832E-002
 DIRECTION dim           40  value   -5.0249392620509720E-003
 DIRECTION dim           41  value    1.1961316106363374E-002
 DIRECTION dim           42  value    2.9300010253938188E-002
 DIRECTION dim           43  value    2.3483098293464778E-002
 DIRECTION dim           44  value    5.4010485140655422E-002
 DIRECTION dim           45  value   -3.3327403219015277E-002
 DIRECTION dim           46  value    1.0626043912339725E-002
 DIRECTION dim           47  value   -3.6224909656252784E-003
 DIRECTION dim           48  value    1.7212110869048096E-003
 Perform trimming
 ALPHA BEFORE:    5.0000000000000010E-003
 XC BEFORE:   0.66672935584587423
  ** Opt : line minimisation
left   ...       0.00000000     -54.84457165
centre ...       0.00100000     -55.29022361
right  ...       0.00200000     -55.73514154

[...]

 ALPHA AFTER:    8.0000000000000019E-003
 XC AFTER:   0.66788284796223873
 SANITY CHECK:    7.9999999999935088E-003
 DIRECTION dim            1  value    6.4313038792115362E-002
 DIRECTION dim            2  value  -0.12116987959779713
 DIRECTION dim            3  value  -0.11795303217545042
 DIRECTION dim            4  value   -4.3378106272330769E-002
 DIRECTION dim            5  value   -2.0199803853844952E-002
 DIRECTION dim            6  value   0.10639911449824156
 DIRECTION dim            7  value  -0.10682343157110223
 DIRECTION dim            8  value    3.3288348910290953E-003
 DIRECTION dim            9  value    7.0355326645689956E-002
 DIRECTION dim           10  value   -3.8258112185770396E-002
 DIRECTION dim           11  value    1.6863230474669127E-002
 DIRECTION dim           12  value    6.2154323807264676E-002
 DIRECTION dim           13  value    6.4725948208021619E-002
 DIRECTION dim           14  value   -5.4850928689125306E-002
 DIRECTION dim           15  value  -0.17895971262621685
 DIRECTION dim           16  value    2.5658097073336231E-002
 DIRECTION dim           17  value    1.0567858499941320E-002
 DIRECTION dim           18  value   0.17666199843418628
 DIRECTION dim           19  value    6.5417120986076091E-002
 DIRECTION dim           20  value   0.11590048190893742
 DIRECTION dim           21  value  -0.24758287733392007
 DIRECTION dim           22  value   0.11224620172774651
 DIRECTION dim           23  value    9.5055959733838912E-003
 DIRECTION dim           24  value   0.25333610561508663
 DIRECTION dim           25  value   -4.8207215135796802E-002
 DIRECTION dim           26  value   -1.0826752341659994E-002
 DIRECTION dim           27  value    5.9879521524302558E-002
 DIRECTION dim           28  value    1.7757339264782056E-003
 DIRECTION dim           29  value   0.14003209397399613
 DIRECTION dim           30  value   0.32846868008472607
 DIRECTION dim           31  value    3.2951487789708647E-002
 DIRECTION dim           32  value    1.7119541300255623E-003
 DIRECTION dim           33  value  -0.32284413430216213
 DIRECTION dim           34  value   -3.3642137789662331E-002
 DIRECTION dim           35  value   -7.3712162774588780E-002
 DIRECTION dim           36  value  -0.46558107855437569
[...]
 DIRECTION dim           18  value   -2.0295743105861019E-005
 DIRECTION dim           19  value   -4.7526227989843064E-003
 DIRECTION dim           20  value    5.1096803033472268E-003
 DIRECTION dim           21  value   -3.2937884057837336E-003
 DIRECTION dim           22  value    1.6578484133281161E-003
 DIRECTION dim           23  value   -3.7277666174984842E-003
 DIRECTION dim           24  value   -1.4309824015334685E-003
 DIRECTION dim           25  value   -9.2941140188571405E-004
 DIRECTION dim           26  value    5.6454973284352054E-003
 DIRECTION dim           27  value    4.9780280713133725E-003
 DIRECTION dim           28  value   -7.7033457896627500E-004
 DIRECTION dim           29  value   -1.7294344803700854E-005
 DIRECTION dim           30  value    2.3043666993334804E-003
 DIRECTION dim           31  value   -2.9089083763517765E-003
 DIRECTION dim           32  value    2.4537717326814307E-004
 DIRECTION dim           33  value    4.5861190301091760E-004
 DIRECTION dim           34  value    2.1366263093786599E-004
 DIRECTION dim           35  value    7.0064187094405631E-003
 DIRECTION dim           36  value    3.5210066938943870E-003
 DIRECTION dim           37  value    1.3732873179294260E-003
 DIRECTION dim           38  value   -1.5243911895222602E-002
 DIRECTION dim           39  value   -3.3048337400361851E-004
 DIRECTION dim           40  value    2.3435072160716837E-002
 DIRECTION dim           41  value    5.0730108316962314E-004
 DIRECTION dim           42  value    5.9935498054871300E-003
 DIRECTION dim           43  value    1.1485579216344043E-002
 DIRECTION dim           44  value   -1.5592423263164604E-003
 DIRECTION dim           45  value   -7.8815393411236639E-003
 DIRECTION dim           46  value   -3.5189931914148833E-003
 DIRECTION dim           47  value    2.8235256503095505E-003
 DIRECTION dim           48  value   -9.1967291914583861E-004
  ** Hessian calculated **
 ALPHA BEFORE:    1.0000000000000000
 XC BEFORE:   0.77848615912625752
  ** Opt : line minimisation
left   ...       0.00000000    -455.63607844
centre ...       0.10000000    -455.67569098
right  ...       0.20000000    -455.71507226

[...]

 ALPHA AFTER:    4.3971116440216325E-003
 XC AFTER:   0.79839371788417091
 SANITY CHECK:    4.3971116436513037E-003
 DIRECTION dim            1  value   -6.8348832081291744E-005
 DIRECTION dim            2  value    1.1472692143299602E-005
 DIRECTION dim            3  value   -5.5558694479398643E-005
 DIRECTION dim            4  value   -5.1648851803282718E-005
 DIRECTION dim            5  value    1.1338578963977206E-005
 DIRECTION dim            6  value   -3.4770563291787408E-005
 DIRECTION dim            7  value   -5.3922001327110076E-005
 DIRECTION dim            8  value   -5.0829315780096642E-005
 DIRECTION dim            9  value   -6.1389137912698491E-005
 DIRECTION dim           10  value   -1.4274782460126446E-005
 DIRECTION dim           11  value    7.0155521496606486E-005
 DIRECTION dim           12  value    4.1376135628844281E-005
 DIRECTION dim           13  value   -7.3468571136087580E-006
 DIRECTION dim           14  value   -5.7927946205777185E-005
 DIRECTION dim           15  value   -1.7325267708560683E-005
 DIRECTION dim           16  value   -5.4317040598252911E-005
 DIRECTION dim           17  value   -8.5698529114006344E-005
 DIRECTION dim           18  value   -7.1825130224654883E-005
 DIRECTION dim           19  value   -4.2416619346493425E-005
 DIRECTION dim           20  value    8.5892370215222990E-005
 DIRECTION dim           21  value    4.1242680513636967E-005
 DIRECTION dim           22  value   -3.3318601322363188E-005
 DIRECTION dim           23  value    1.4282262581166966E-005
 DIRECTION dim           24  value   -4.1973351435268517E-006
 DIRECTION dim           25  value   -6.7821363735912483E-005
 DIRECTION dim           26  value   -5.4514332095905629E-006
 DIRECTION dim           27  value    3.5415690148465706E-006
 DIRECTION dim           28  value   -1.3333802942480389E-005
 DIRECTION dim           29  value   -1.1655478932542706E-005
 DIRECTION dim           30  value   -3.8071614011815203E-005
 DIRECTION dim           31  value   -3.7266695601900203E-005
 DIRECTION dim           32  value    3.4073717284556394E-005
 DIRECTION dim           33  value   -3.1116788332047419E-005
 DIRECTION dim           34  value   -2.7654580577698947E-005
 DIRECTION dim           35  value    3.9476822603497153E-006
 DIRECTION dim           36  value   -2.7564904822061642E-005
 DIRECTION dim           37  value   -2.4815009894688454E-005
 DIRECTION dim           38  value   -4.7558599998076465E-005
 DIRECTION dim           39  value   -4.1018995407532780E-005
 DIRECTION dim           40  value   -2.6938623589382614E-005
 DIRECTION dim           41  value    2.3685663344815384E-005
 DIRECTION dim           42  value    1.1058543230356072E-005
 DIRECTION dim           43  value    3.4463197130094412E-005
 DIRECTION dim           44  value   -1.1222613917877296E-005
 DIRECTION dim           45  value   -1.8703139723744436E-005
 DIRECTION dim           46  value   -5.1912897974737998E-005
 DIRECTION dim           47  value   -1.4248142223358277E-005
 DIRECTION dim           48  value    5.5863314441604662E-005
 ALPHA BEFORE:    4.4314368797838469E-003
 XC BEFORE:   0.79839371788417091
  ** Opt : line minimisation
left   ...       0.00000000    -468.59699413
centre ...       0.00110786    -468.59681913
right  ...      -0.00110786    -468.59699412

[...]

 ALPHA AFTER:   -1.2141268749008382E-002
 XC AFTER:   0.79839371788417091
 SANITY CHECK:   -0.0000000000000000
 DIRECTION dim            1  value   -9.1103740326103330E-005
 DIRECTION dim            2  value    1.5290762124641161E-005
 DIRECTION dim            3  value   -7.4041882345317854E-005
 DIRECTION dim            4  value   -6.8843490241632925E-005
 DIRECTION dim            5  value    1.5111270491118190E-005
 DIRECTION dim            6  value   -4.6327577140056170E-005
 DIRECTION dim            7  value   -7.1867771413145975E-005
 DIRECTION dim            8  value   -6.7735483055559760E-005
 DIRECTION dim            9  value   -8.1804772818458755E-005
 DIRECTION dim           10  value   -1.9032369982912447E-005
 DIRECTION dim           11  value    9.3504092027349274E-005
 DIRECTION dim           12  value    5.5152115876584298E-005
 DIRECTION dim           13  value   -9.8083326707599833E-006
 DIRECTION dim           14  value   -7.7192032145251646E-005
 DIRECTION dim           15  value   -2.3082828033809020E-005
 DIRECTION dim           16  value   -7.2386167851783899E-005
 DIRECTION dim           17  value   -1.1421081282616801E-004
 DIRECTION dim           18  value   -9.5716429131752814E-005
 DIRECTION dim           19  value   -5.6536013103638334E-005
 DIRECTION dim           20  value    1.1448975975797202E-004
 DIRECTION dim           21  value    5.4984329031097562E-005
 DIRECTION dim           22  value   -4.4410529464022372E-005
 DIRECTION dim           23  value    1.9036643629955924E-005
 DIRECTION dim           24  value   -5.5842179087560497E-006
 DIRECTION dim           25  value   -9.0395336880766655E-005
 DIRECTION dim           26  value   -7.2653789939695244E-006
 DIRECTION dim           27  value    4.7342431019350167E-006
 DIRECTION dim           28  value   -1.7774458643474056E-005
 DIRECTION dim           29  value   -1.5542211157790849E-005
 DIRECTION dim           30  value   -5.0739512076327166E-005
 DIRECTION dim           31  value   -4.9676023047942261E-005
 DIRECTION dim           32  value    4.5414879817429058E-005
 DIRECTION dim           33  value   -4.1469313090437289E-005
 DIRECTION dim           34  value   -3.6868369871532850E-005
 DIRECTION dim           35  value    5.2627787889735961E-006
 DIRECTION dim           36  value   -3.6729261179927166E-005
 DIRECTION dim           37  value   -3.3072869319146512E-005
 DIRECTION dim           38  value   -6.3378595142434888E-005
 DIRECTION dim           39  value   -5.4660512165279773E-005
 DIRECTION dim           40  value   -3.5902535324898325E-005
 DIRECTION dim           41  value    3.1571851067469848E-005
 DIRECTION dim           42  value    1.4748345965291353E-005
 DIRECTION dim           43  value    4.4536951784251370E-005
 DIRECTION dim           44  value   -1.2436601880063097E-005
 DIRECTION dim           45  value   -4.6572859445811442E-005
 DIRECTION dim           46  value   -8.8053872489544851E-005
 DIRECTION dim           47  value   -2.4972048135568093E-005
 DIRECTION dim           48  value    6.6393436659138534E-005
  ** Hessian calculated **
 ALPHA BEFORE:    1.0000000000000000
 XC BEFORE:   0.79839371788417091
  ** Opt : line minimisation
left   ...       0.00000000    -468.59699413
centre ...       0.10000000    -468.59681960
right  ...      -0.10000000    -468.59699361

[...]

left   ...      -0.02463692    -468.59699400
centre ...       0.00000000    -468.59699413
right  ...       0.10000000    -468.59681960
new    ...      -0.01214127    -468.59699407

__s__    ...       0.01249565

 ALPHA AFTER:   -1.2141268749008382E-002
 XC AFTER:   0.79839371788417091
 SANITY CHECK:   -0.0000000000000000
 DIRECTION dim            1  value   -9.1103740326103330E-005
 DIRECTION dim            2  value    1.5290762124641161E-005
 DIRECTION dim            3  value   -7.4041882345317854E-005
 DIRECTION dim            4  value   -6.8843490241632925E-005
 DIRECTION dim            5  value    1.5111270491118190E-005
 DIRECTION dim            6  value   -4.6327577140056170E-005
 DIRECTION dim            7  value   -7.1867771413145975E-005
 DIRECTION dim            8  value   -6.7735483055559760E-005
 DIRECTION dim            9  value   -8.1804772818458755E-005
 DIRECTION dim           10  value   -1.9032369982912447E-005
 DIRECTION dim           11  value    9.3504092027349274E-005
 DIRECTION dim           12  value    5.5152115876584298E-005
 DIRECTION dim           13  value   -9.8083326707599833E-006
 DIRECTION dim           14  value   -7.7192032145251646E-005
 DIRECTION dim           15  value   -2.3082828033809020E-005
 DIRECTION dim           16  value   -7.2386167851783899E-005
 DIRECTION dim           17  value   -1.1421081282616801E-004
 DIRECTION dim           18  value   -9.5716429131752814E-005
 DIRECTION dim           19  value   -5.6536013103638334E-005
 DIRECTION dim           20  value    1.1448975975797202E-004
 DIRECTION dim           21  value    5.4984329031097562E-005
 DIRECTION dim           22  value   -4.4410529464022372E-005
 DIRECTION dim           23  value    1.9036643629955924E-005
 DIRECTION dim           24  value   -5.5842179087560497E-006
 DIRECTION dim           25  value   -9.0395336880766655E-005
 DIRECTION dim           26  value   -7.2653789939695244E-006
 DIRECTION dim           27  value    4.7342431019350167E-006
 DIRECTION dim           28  value   -1.7774458643474056E-005
 DIRECTION dim           29  value   -1.5542211157790849E-005
 DIRECTION dim           30  value   -5.0739512076327166E-005
 DIRECTION dim           31  value   -4.9676023047942261E-005
 DIRECTION dim           32  value    4.5414879817429058E-005
 DIRECTION dim           33  value   -4.1469313090437289E-005
 DIRECTION dim           34  value   -3.6868369871532850E-005
 DIRECTION dim           35  value    5.2627787889735961E-006
 DIRECTION dim           36  value   -3.6729261179927166E-005
 DIRECTION dim           37  value   -3.3072869319146512E-005
 DIRECTION dim           38  value   -6.3378595142434888E-005
 DIRECTION dim           39  value   -5.4660512165279773E-005
 DIRECTION dim           40  value   -3.5902535324898325E-005
 DIRECTION dim           41  value    3.1571851067469848E-005
 DIRECTION dim           42  value    1.4748345965291353E-005
 DIRECTION dim           43  value    4.4536951784251370E-005
 DIRECTION dim           44  value   -1.2436601880063097E-005
 DIRECTION dim           45  value   -4.6572859445811442E-005
 DIRECTION dim           46  value   -8.8053872489544851E-005
 DIRECTION dim           47  value   -2.4972048135568093E-005
 DIRECTION dim           48  value    6.6393436659138534E-005

  **** Conditions for a minimum have not been satisfied. However ****
  **** no lower point can be found - treat results with caution  ****
  **** unless gradient norm is small (less than 0.1)             ****

  Final energy =    -468.59699413 eV
  Final Gnorm  =       0.00129164

  Components of energy :

  Interatomic potentials     =          73.12357263 eV
  Monopole - monopole (real) =        -279.06664163 eV
  Monopole - monopole (recip)=        -262.65392513 eV
  Monopole - monopole (total)=        -541.72056676 eV
  Total lattice energy       =        -468.59699413 eV
  Total lattice energy       =          -45212.4468 kJ/(mole unit cells)

  Final fractional coordinates of atoms :

   No.  Atomic        x           y          z          Radius
        Label       (Frac)      (Frac)     (Frac)       (Angs)
     1  O     c     0.000000    0.333330    0.833330    0.000000
     2  O     c     0.798394    0.642513    0.233205    0.000000
     3  O     c     0.439240    0.689251    0.421627    0.000000
     4  O     c     0.236963    0.006942    0.068069    0.000000
     5  O     c     0.680364    0.320115    0.490753    0.000000
     6  O     c     0.408782    0.388098    0.119312    0.000000
     7  O     c     0.434571    0.201201    0.751022    0.000000
     8  O     c     0.755290    0.050406    0.968748    0.000000
     9  O     c     0.866605    0.980576    0.610132    0.000000
    10  Sr    c     0.618612    0.984980    0.261701    0.000000
    11  Sr    c     0.929713    0.728756    0.912564    0.000000
    12  Sr    c     0.122206    0.863581    0.403238    0.000000
    13  Ti    c     0.583547    0.507233    0.324537    0.000000
    14  Ti    c     0.254273    0.227516    0.931645    0.000000
    15  Ti    c     0.737739    0.177597    0.732381    0.000000

  Final Cartesian lattice vectors (Angstroms) :

        6.216389   -0.156266   -0.318947
       -0.156266    6.850273   -0.009266
       -0.637894   -0.018531    6.753040

  Final cell parameters and derivatives :

       a            6.226527 Angstrom     dE/de1(xx)    -0.004053 eV/strain
       b            6.852061 Angstrom     dE/de2(yy)    -0.005447 eV/strain
       c            6.783127 Angstrom     dE/de3(zz)    -0.014909 eV/strain
       alpha       90.110744 Degrees      dE/de4(yz)    -0.010861 eV/strain
       beta        98.326648 Degrees      dE/de5(xz)     0.004764 eV/strain
       gamma       92.739187 Degrees      dE/de6(xy)    -0.000380 eV/strain

  Primitive cell volume =           286.009663 Angs**3

  Density of cell =      3.196190 g/cm**3

  Non-primitive cell volume =           286.009663 Angs**3

  Final internal derivatives :

   No.  Atomic          a             b             c           Radius
        Label          (eV)          (eV)          (eV)        (eV/Angs)
      1 O     c       0.000000      0.000000      0.000000      0.000000
      2 O     c       0.001922     -0.000518      0.006210      0.000000
      3 O     c       0.007922     -0.009145     -0.009507      0.000000
      4 O     c       0.002924      0.000375     -0.000609      0.000000
      5 O     c       0.010162     -0.013788      0.000430      0.000000
      6 O     c       0.001833     -0.004712     -0.003859      0.000000
      7 O     c      -0.023028      0.015400      0.015532      0.000000
      8 O     c       0.018138     -0.011165     -0.011490      0.000000
      9 O     c      -0.012238      0.000584      0.013626      0.000000
     10 Sr    c       0.003216      0.002168     -0.000583      0.000000
     11 Sr    c      -0.007153      0.010290      0.007435      0.000000
     12 Sr    c      -0.004641      0.000042      0.000236      0.000000
     13 Ti    c      -0.011784      0.012799     -0.003394      0.000000
     14 Ti    c       0.015557      0.002960      0.001482      0.000000
     15 Ti    c       0.003795     -0.003036     -0.006490      0.000000
  Maximum abs         0.023028      0.015400      0.015532      0.000000

  Time to end of optimisation =       0.9958 seconds

 Exiting ------OPTIONS------

  Timing analysis for GULP :

  Task / Subroutine                                          Time (Seconds)
  Calculation of reciprocal space energy and derivatives          0.1067
  Calculation of real space energy and derivatives                0.8602
  Calculation and manipulation of Hessian matrix                  0.0002
  Calculation of matrix inversion                                 0.0006
  Global summation overhead                                       0.0006

  Job Finished at 13:26.46 21st February   2020