  Job Started  at 13:26.46 21st February   2020

  Number of CPUs =     1

  Total number of configurations input =      1

*  Input for Configuration =   1                                               *

  Formula = O9Sr3Ti3

  Number of irreducible atoms/shells =      15

  Total number atoms/shells =      15

  Dimensionality = 3               :  Bulk

  Cartesian lattice vectors (Angstroms) :

        4.000000    0.000000    0.000000
        0.000000    4.000000    0.000000
        0.000000    0.000000    8.000000

  Cell parameters (Angstroms/Degrees):

  a =       4.0000    alpha =  90.0000
  b =       4.0000    beta  =  90.0000
  c =       8.0000    gamma =  90.0000

  Initial cell volume =         128.000000 Angs**3

  Temperature of configuration =  0.000     K

  Pressure of configuration =         0.000 GPa

  Fractional coordinates of asymmetric unit :

   No.  Atomic       x           y          z         Charge      Occupancy
        Label      (Frac)      (Frac)     (Frac)        (e)         (Frac)
      1 O     c    0.000000    0.500000    0.250000    -2.00000    1.000000
      2 O     c    0.500000 *  0.500000 *  0.250000 *  -2.00000    1.000000
      3 O     c    0.000000 *  0.500000 *  0.500000 *  -2.00000    1.000000
      4 O     c    0.500000 *  0.000000 *  0.500000 *  -2.00000    1.000000
      5 O     c    0.500000 *  0.500000 *  0.750000 *  -2.00000    1.000000
      6 O     c    0.000000 *  0.000000 *  0.000000 *  -2.00000    1.000000
      7 O     c    0.000000 *  0.000000 *  0.500000 *  -2.00000    1.000000
      8 O     c    0.500000 *  0.000000 *  0.000000 *  -2.00000    1.000000
      9 O     c    0.000000 *  0.500000 *  0.750000 *  -2.00000    1.000000
     10 Sr    c    0.750000 *  0.250000 *  0.375000 *   2.00000    1.000000
     11 Sr    c    0.750000 *  0.750000 *  0.875000 *   2.00000    1.000000
     12 Sr    c    0.750000 *  0.750000 *  0.125000 *   2.00000    1.000000
     13 Ti    c    0.750000 *  0.250000 *  0.875000 *   4.00000    1.000000
     14 Ti    c    0.250000 *  0.250000 *  0.125000 *   4.00000    1.000000
     15 Ti    c    0.250000 *  0.750000 *  0.125000 *   4.00000    1.000000

*  General input information                                                   *

  Species output for all configurations :

  Species    Type    Atomic    Atomic    Charge       Radii (Angs)     Library
                     Number     Mass       (e)     Cova   Ionic  VDW   Symbol
    O        Core        8      16.00  -2.000000   0.730  0.000  1.360
    Sr       Core       38      87.62   2.000000   1.120  0.000  1.670
    Ti       Core       22      47.88   4.000000   1.470  0.000  2.190

  Lattice summation method               =    Ewald          (3-D)
                                         =    Parry          (2-D)
                                         =    Saunders et al (1-D)
  Accuracy factor for lattice sums       =   12.000

  Time limit = Infinity

  Maximum range for interatomic potentials =    100000.000000 Angstroms

  General interatomic potentials :

Atom  Types   Potential      Parameter       Value         Units   Cutoffs(Ang)
  1     2                                                            Min /  Max
O    c Sr   c Buckingham    Buckingham A     1952.3900    eV        0.000 10.000
                            Buckingham rho  0.33685000    Ang
                            Buckingham C     19.220000    eV*Ang^6
O    c Ti   c Buckingham    Buckingham A     4590.7279    eV        0.000 10.000
                            Buckingham rho  0.26100000    Ang
                            Buckingham C     0.0000000    eV*Ang^6
O    c O    c Buckingham    Buckingham A     1388.7700    eV        0.000 10.000
                            Buckingham rho  0.36262000    Ang
                            Buckingham C     175.00000    eV*Ang^6
 Calling ------OPTIONS------

*  Output for configuration   1                                                *

  Components of energy :

  Interatomic potentials     =         252.05488473 eV
  Monopole - monopole (real) =        -121.78183040 eV
  Monopole - monopole (recip)=        -176.23510212 eV
  Monopole - monopole (total)=        -298.01693251 eV
  Total lattice energy       =         -45.96204778 eV
  Total lattice energy       =           -4434.6350 kJ/(mole unit cells)

  Number of variables =       48

  Maximum number of calculations  =          1000
  Maximum Hessian update interval =            10
  Maximum step size               =   0.001000000
  Maximum parameter tolerance     =   0.000010000
  Maximum function  tolerance     =   0.000010000
  Maximum gradient  tolerance     =   0.001000000
  Maximum gradient  component     =   0.010000000

  Cell parameters to be optimised using strains

  Conjugate gradient optimiser to be used

  Lower half triangular hessian to be used

  Minimiser to switch to BFGS with exact hessian
  When gradient norm is less than     0.500000

  Switch max step size to       0.10000000 when gnorm is less than    10.000000

  Start of bulk optimisation :

 Perform trimming
 ALPHA BEFORE:    1.0000000000000000
 XC BEFORE:   0.50000000000000000
  ** Opt : line minimisation
left   ...       0.00000000     -45.96204778
centre ...       0.00100000     -46.47344849
right  ...       0.00200000     -46.99396676

left   ...       0.00000000     -45.96204778
centre ...       0.00100000     -46.47344849
right  ...       0.00200000     -46.99396676
new    ...       0.00300000     -47.51362827

__s__    ...       0.00100000

[...]

 ALPHA AFTER:    8.0000000000000019E-003
 XC AFTER:   0.49986792290746074
 SANITY CHECK:    8.0000000000022328E-003
 DIRECTION dim            1  value   -1.6509636567403174E-002
 DIRECTION dim            2  value   -3.3076942582235607E-004
 DIRECTION dim            3  value   -7.8869337607690201E-002
 DIRECTION dim            4  value    6.8184340503957283E-003
 DIRECTION dim            5  value    6.6227869714520753E-003
 DIRECTION dim            6  value   -9.6048413201128852E-003
 DIRECTION dim            7  value   -6.8184340503957283E-003
 DIRECTION dim            8  value   -6.6227869714520710E-003
 DIRECTION dim            9  value   -9.6048413201129269E-003
 DIRECTION dim           10  value   -5.4496109905292139E-003
 DIRECTION dim           11  value   -8.6531488829633182E-003
 DIRECTION dim           12  value    6.0901500990118825E-002
 DIRECTION dim           13  value    1.5140813507536668E-002
 DIRECTION dim           14  value    1.5606705280237741E-002
 DIRECTION dim           15  value    2.7572677937684236E-002
 DIRECTION dim           16  value    6.8184340503957309E-003
 DIRECTION dim           17  value   -6.6227869714520719E-003
 DIRECTION dim           18  value   -9.6048413201129095E-003
 DIRECTION dim           19  value   -1.5140813507536661E-002
 DIRECTION dim           20  value    1.5606705280237741E-002
 DIRECTION dim           21  value    2.7572677937684264E-002
 DIRECTION dim           22  value    5.4496109905292122E-003
 DIRECTION dim           23  value   -8.6531488829633182E-003
 DIRECTION dim           24  value    7.7507495455136979E-002
 DIRECTION dim           25  value   -6.7206105109238997E-003
 DIRECTION dim           26  value   -6.7206105109239031E-003
 DIRECTION dim           27  value    5.9846788820981593E-002
 DIRECTION dim           28  value    2.3294588635054428E-004
 DIRECTION dim           29  value   -2.3294588635053678E-004
 DIRECTION dim           30  value   -8.1269293832197553E-002
 DIRECTION dim           31  value    2.3294588635051515E-004
 DIRECTION dim           32  value   -2.3294588635053637E-004
 DIRECTION dim           33  value    4.4054150107526668E-002
 DIRECTION dim           34  value    5.6371531217289485E-004
 DIRECTION dim           35  value    5.6371531217289854E-004
 DIRECTION dim           36  value  -0.14630557863871513
 DIRECTION dim           37  value   -5.6371531217290006E-004
 DIRECTION dim           38  value    5.6371531217289887E-004
 DIRECTION dim           39  value    6.6639387431258731E-002
 DIRECTION dim           40  value   -5.6371531217288726E-004
 DIRECTION dim           41  value   -5.6371531217289919E-004
 DIRECTION dim           42  value    6.6639387431258745E-002
 DIRECTION dim           43  value   0.11535151153595628
 DIRECTION dim           44  value   0.11154815170797851
 DIRECTION dim           45  value   -2.9418437637588845E-002
 DIRECTION dim           46  value   -4.8481840069290695E-003
 DIRECTION dim           47  value    2.8064460769596021E-003
 DIRECTION dim           48  value    1.8328170557824020E-003
 Perform trimming
 ALPHA BEFORE:    8.0000000000000019E-003
 XC BEFORE:   0.49986792290746074
  ** Opt : line minimisation
left   ...       0.00000000     -50.09910889
centre ...       0.00100000     -50.87061050
right  ...       0.00200000     -51.64020626

[...]

 ALPHA AFTER:    8.0000000000000019E-003
 XC AFTER:   0.49826907532175291
 SANITY CHECK:    7.9999999999991345E-003
 DIRECTION dim            1  value   -8.2609771620454409E-002
 DIRECTION dim            2  value   -1.4351298507539766E-002
 DIRECTION dim            3  value  -0.37890392285397961
 DIRECTION dim            4  value    4.0075857764184097E-002
 DIRECTION dim            5  value    3.8309971894819356E-002
 DIRECTION dim            6  value   -3.8598975849302122E-002
 DIRECTION dim            7  value   -3.9883360758282881E-002
 DIRECTION dim            8  value   -3.9503423632310776E-002
 DIRECTION dim            9  value   -4.7163648506892822E-002
 DIRECTION dim           10  value   -4.1257222829502616E-002
 DIRECTION dim           11  value   -4.9553546927017085E-002
 DIRECTION dim           12  value   0.29727854377124280
 DIRECTION dim           13  value    7.3539649513647512E-002
 DIRECTION dim           14  value    8.3104828191616437E-002
 DIRECTION dim           15  value   0.13490302702396048
 DIRECTION dim           16  value    3.9805010998080682E-002
 DIRECTION dim           17  value   -3.8397240067000758E-002
 DIRECTION dim           18  value   -4.6598782578328127E-002
 DIRECTION dim           19  value   -7.3538306684423058E-002
 DIRECTION dim           20  value    8.3067114972509890E-002
 DIRECTION dim           21  value   0.13369005554596883
 DIRECTION dim           22  value    4.3055062297381874E-002
 DIRECTION dim           23  value   -4.9988004010926700E-002
 DIRECTION dim           24  value   0.38420565015725006
 DIRECTION dim           25  value   -4.3222040817885977E-002
 DIRECTION dim           26  value   -2.3094779877942184E-002
 DIRECTION dim           27  value   0.28871884879497367
 DIRECTION dim           28  value    3.9709436024974661E-004
 DIRECTION dim           29  value    2.5277225666092282E-002
 DIRECTION dim           30  value  -0.39026929357453688
 DIRECTION dim           31  value    5.1864164318130507E-003
 DIRECTION dim           32  value    9.5952106646321270E-003
 DIRECTION dim           33  value   0.21252557523635429
 DIRECTION dim           34  value    2.8300562593620905E-003
 DIRECTION dim           35  value   -1.8265993501833826E-002
 DIRECTION dim           36  value  -0.73134850930366868
[...]
 DIRECTION dim           14  value   -7.1666950204629688E-003
 DIRECTION dim           15  value    8.6661215694961002E-003
 DIRECTION dim           16  value   -1.7064407032848124E-003
 DIRECTION dim           17  value   -4.1773515489738205E-003
 DIRECTION dim           18  value    1.6123477766581107E-003
 DIRECTION dim           19  value   -1.3960675490600162E-003
 DIRECTION dim           20  value   -1.2007510022491827E-002
 DIRECTION dim           21  value   -9.2350295576656329E-003
 DIRECTION dim           22  value    3.3751768826393788E-003
 DIRECTION dim           23  value   -9.2602929208026475E-003
 DIRECTION dim           24  value   -3.8676383936721236E-003
 DIRECTION dim           25  value   -1.9782677855491844E-003
 DIRECTION dim           26  value   -8.1075159331084530E-004
 DIRECTION dim           27  value    7.5779527536362409E-003
 DIRECTION dim           28  value   -1.3701058851964336E-002
 DIRECTION dim           29  value    4.6303446591546404E-003
 DIRECTION dim           30  value   -1.1815321654897056E-003
 DIRECTION dim           31  value    1.1893082378690253E-003
 DIRECTION dim           32  value   -6.3864304775419194E-003
 DIRECTION dim           33  value   -3.9537885124017258E-003
 DIRECTION dim           34  value    1.0593823253840284E-002
 DIRECTION dim           35  value   -1.0066683395120706E-003
 DIRECTION dim           36  value    5.5998836351514062E-003
 DIRECTION dim           37  value    5.7511961637393455E-004
 DIRECTION dim           38  value   -8.0488790076056332E-003
 DIRECTION dim           39  value    3.8135243703530069E-004
 DIRECTION dim           40  value    2.0147672711296931E-003
 DIRECTION dim           41  value    7.7400911567400150E-004
 DIRECTION dim           42  value   -3.4410591335553133E-003
 DIRECTION dim           43  value    4.4232329288979664E-003
 DIRECTION dim           44  value   -1.1345065909233553E-002
 DIRECTION dim           45  value   -1.5018766468387690E-003
 DIRECTION dim           46  value   -3.6525242604880698E-003
 DIRECTION dim           47  value    5.3768965537716047E-004
 DIRECTION dim           48  value    1.6349264057732313E-003
  ** Hessian calculated **
 ALPHA BEFORE:    1.0000000000000000
 XC BEFORE:   0.38445289041706193
  ** Opt : line minimisation
left   ...       0.00000000    -468.86565125
centre ...       0.10000000    -468.89333424
right  ...       0.20000000    -468.92053305

[...]

 ALPHA AFTER:   0.30000000000000004
 XC AFTER:   0.40111091618363515
 SANITY CHECK:   0.30000000000482824
 DIRECTION dim            1  value   -2.8592390044030489E-006
 DIRECTION dim            2  value    1.5337477727804505E-004
 DIRECTION dim            3  value    5.0651912171419101E-005
 DIRECTION dim            4  value   -4.0979858431761535E-005
 DIRECTION dim            5  value    1.3138157419359775E-004
 DIRECTION dim            6  value    3.0590610041150567E-005
 DIRECTION dim            7  value   -3.2684534769343324E-005
 DIRECTION dim            8  value    1.4948130189127080E-004
 DIRECTION dim            9  value    4.7434237648770258E-005
 DIRECTION dim           10  value   -3.9438978916091265E-005
 DIRECTION dim           11  value    4.3015786962375041E-006
 DIRECTION dim           12  value   -2.3173189815640924E-005
 DIRECTION dim           13  value    5.9264945278694689E-005
 DIRECTION dim           14  value    5.3585440175628419E-005
 DIRECTION dim           15  value   -7.6539238033847119E-006
 DIRECTION dim           16  value   -2.2830654477087434E-005
 DIRECTION dim           17  value    2.6031255367571163E-005
 DIRECTION dim           18  value   -4.1208531467342014E-005
 DIRECTION dim           19  value    1.1556940537801415E-005
 DIRECTION dim           20  value    2.1765381980652575E-004
 DIRECTION dim           21  value    1.2584399739380379E-007
 DIRECTION dim           22  value   -4.7718251158091455E-005
 DIRECTION dim           23  value    1.1777958485406101E-004
 DIRECTION dim           24  value    1.4181991101811862E-005
 DIRECTION dim           25  value   -3.1498936371827626E-005
 DIRECTION dim           26  value    9.1703892656644321E-005
 DIRECTION dim           27  value    1.1324639658254628E-005
 DIRECTION dim           28  value    5.7256044354450141E-006
 DIRECTION dim           29  value    1.4214983967794745E-004
 DIRECTION dim           30  value    1.6093915246613290E-005
 DIRECTION dim           31  value   -3.4004905242679036E-006
 DIRECTION dim           32  value    3.0538254388166122E-005
 DIRECTION dim           33  value   -8.4833049912508621E-006
 DIRECTION dim           34  value   -2.6265342654166197E-005
 DIRECTION dim           35  value    8.1590614946798842E-005
 DIRECTION dim           36  value   -4.9612700574638526E-006
 DIRECTION dim           37  value   -5.9223757196147968E-006
 DIRECTION dim           38  value    1.1272136189889766E-004
 DIRECTION dim           39  value    4.8207814751162802E-006
 DIRECTION dim           40  value   -4.8925479133525341E-006
 DIRECTION dim           41  value    8.7786048836914469E-005
 DIRECTION dim           42  value    1.7248890829681189E-005
 DIRECTION dim           43  value    2.5668911651805589E-005
 DIRECTION dim           44  value   -5.2070136108118531E-005
 DIRECTION dim           45  value   -2.7451737292600813E-006
 DIRECTION dim           46  value   -3.3753503948497346E-005
 DIRECTION dim           47  value   -9.8783718454585463E-005
 DIRECTION dim           48  value   -3.2729845484875118E-004
  ** Hessian calculated **
 ALPHA BEFORE:    1.0000000000000000
 XC BEFORE:   0.40111091618363515
  ** Opt : line minimisation
left   ...       0.00000000    -472.53016818
centre ...       0.10000000    -472.53016864
right  ...       0.20000000    -472.53016904

[...]

 ALPHA AFTER:   0.30000000000000004
 XC AFTER:   0.40111026163298980
 SANITY CHECK:   0.29999999997944432
 DIRECTION dim            1  value   -2.1818354846543986E-006
 DIRECTION dim            2  value    1.0487444026498025E-004
 DIRECTION dim            3  value    3.4307128803228332E-005
 DIRECTION dim            4  value   -2.7711821595922344E-005
 DIRECTION dim            5  value    8.9729548624605714E-005
 DIRECTION dim            6  value    2.0800803140810111E-005
 DIRECTION dim            7  value   -2.3139542705745987E-005
 DIRECTION dim            8  value    1.0223438050836379E-004
 DIRECTION dim            9  value    3.1698896870635993E-005
 DIRECTION dim           10  value   -2.6498745109927503E-005
 DIRECTION dim           11  value    2.2800342898787962E-006
 DIRECTION dim           12  value   -1.5623917222489458E-005
 DIRECTION dim           13  value    3.9183531424442477E-005
 DIRECTION dim           14  value    3.5980383196075461E-005
 DIRECTION dim           15  value   -5.6333670179713776E-006
 DIRECTION dim           16  value   -1.6187196238256669E-005
 DIRECTION dim           17  value    1.7059246026751462E-005
 DIRECTION dim           18  value   -2.8106875277257853E-005
 DIRECTION dim           19  value    6.6904167433046521E-006
 DIRECTION dim           20  value    1.4896037557516500E-004
 DIRECTION dim           21  value   -4.6251609610417845E-007
 DIRECTION dim           22  value   -3.2717554218507213E-005
 DIRECTION dim           23  value    7.9663760150043117E-005
 DIRECTION dim           24  value    9.4548586895949926E-006
 DIRECTION dim           25  value   -2.1862691762895293E-005
 DIRECTION dim           26  value    6.1990882070138740E-005
 DIRECTION dim           27  value    7.4286379651617239E-006
 DIRECTION dim           28  value    1.3248547568509407E-006
 DIRECTION dim           29  value    9.6043509090843431E-005
 DIRECTION dim           30  value    1.0547830019506094E-005
 DIRECTION dim           31  value   -1.2654649201189393E-006
 DIRECTION dim           32  value    1.8485984803712858E-005
 DIRECTION dim           33  value   -6.2204486614254985E-006
 DIRECTION dim           34  value   -1.8217393894353419E-005
 DIRECTION dim           35  value    5.5179143550734025E-005
 DIRECTION dim           36  value   -3.4290745538758637E-006
 DIRECTION dim           37  value   -4.5000440098334135E-006
 DIRECTION dim           38  value    7.6614414081874551E-005
 DIRECTION dim           39  value    3.0911030963801879E-006
 DIRECTION dim           40  value   -4.0352050654566753E-006
 DIRECTION dim           41  value    5.9590990239846458E-005
 DIRECTION dim           42  value    1.1405145159175976E-005
 DIRECTION dim           43  value    1.7289201801381002E-005
 DIRECTION dim           44  value   -2.9330886560325897E-005
 DIRECTION dim           45  value   -2.1353494969270967E-006
 DIRECTION dim           46  value   -2.1877016341879443E-005
 DIRECTION dim           47  value   -6.9402779233197577E-005
 DIRECTION dim           48  value   -1.7303665028676538E-004
 ALPHA BEFORE:   0.35556139380897117
 XC BEFORE:   0.40111026163298980
  ** Opt : line minimisation
left   ...       0.00000000    -472.53016940
centre ...       0.08889035    -472.53016965
right  ...       0.17778070    -472.53016987

left   ...       0.00000000    -472.53016940
centre ...       0.08889035    -472.53016965
right  ...       0.17778070    -472.53016987
new    ...       0.27778070    -472.53017010

__s__    ...       0.10000000

 ALPHA AFTER:   0.27778069690448559
 XC AFTER:   0.40110979473105202
 SANITY CHECK:   0.27778069689996343
 DIRECTION dim            1  value   -1.6808293124382562E-006
 DIRECTION dim            2  value    8.0775423081946659E-005
 DIRECTION dim            3  value    2.6425771472795310E-005
 DIRECTION dim            4  value   -2.1344047530544582E-005
 DIRECTION dim            5  value    6.9113030045681452E-005
 DIRECTION dim            6  value    1.6022242091044263E-005
 DIRECTION dim            7  value   -1.7824914124001366E-005
 DIRECTION dim            8  value    7.8743932719843094E-005
 DIRECTION dim            9  value    2.4414573098950072E-005
 DIRECTION dim           10  value   -2.0406087649397649E-005
 DIRECTION dim           11  value    1.7532613400433780E-006
 DIRECTION dim           12  value   -1.2032148023034364E-005
 DIRECTION dim           13  value    3.0180421237550645E-005
 DIRECTION dim           14  value    2.7712692878467727E-005
 DIRECTION dim           15  value   -4.3385252308027944E-006
 DIRECTION dim           16  value   -1.2469698969663648E-005
 DIRECTION dim           17  value    1.3138216217468553E-005
 DIRECTION dim           18  value   -2.1649873836026280E-005
 DIRECTION dim           19  value    5.1465637207571972E-006
 DIRECTION dim           20  value    1.1474002223084702E-004
 DIRECTION dim           21  value   -3.6202157114417993E-007
 DIRECTION dim           22  value   -2.5203199608881648E-005
 DIRECTION dim           23  value    6.1357641262285408E-005
 DIRECTION dim           24  value    7.2825218948692084E-006
 DIRECTION dim           25  value   -1.6839662005979680E-005
 DIRECTION dim           26  value    4.7738618735493758E-005
 DIRECTION dim           27  value    5.7184795516479552E-006
 DIRECTION dim           28  value    1.0144190152899174E-006
 DIRECTION dim           29  value    7.3972292053824622E-005
 DIRECTION dim           30  value    8.1224452937181495E-006
 DIRECTION dim           31  value   -9.7214748778371339E-007
 DIRECTION dim           32  value    1.4212638831756238E-005
 DIRECTION dim           33  value   -4.7935491490204713E-006
 DIRECTION dim           34  value   -1.4032549313653570E-005
 DIRECTION dim           35  value    4.2500118424823329E-005
 DIRECTION dim           36  value   -2.6401986632028081E-006
 DIRECTION dim           37  value   -3.4673369302264659E-006
 DIRECTION dim           38  value    5.9008567243157226E-005
 DIRECTION dim           39  value    2.3794844001602557E-006
 DIRECTION dim           40  value   -3.1090377965024050E-006
 DIRECTION dim           41  value    4.5898117902349749E-005
 DIRECTION dim           42  value    8.7843549484871665E-006
 DIRECTION dim           43  value    1.7184815471110685E-005
 DIRECTION dim           44  value   -2.9554067443977966E-005
 DIRECTION dim           45  value   -1.3684361940909626E-006
 DIRECTION dim           46  value   -1.8314265821863105E-005
 DIRECTION dim           47  value   -5.2255005964553931E-005
 DIRECTION dim           48  value   -1.8164890257549331E-004

  **** Optimisation achieved ****

  Final energy =    -472.53017010 eV
  Final Gnorm  =       0.00037073

  Components of energy :

  Interatomic potentials     =          69.66308720 eV
  Monopole - monopole (real) =        -259.20537015 eV
  Monopole - monopole (recip)=        -282.98788715 eV
  Monopole - monopole (total)=        -542.19325730 eV
  Total lattice energy       =        -472.53017010 eV
  Total lattice energy       =          -45591.9381 kJ/(mole unit cells)

  Final fractional coordinates of atoms :

   No.  Atomic        x           y          z          Radius
        Label       (Frac)      (Frac)     (Frac)       (Angs)
     1  O     c     0.000000    0.500000    0.250000    0.000000
     2  O     c     0.401110    0.555743    0.229251    0.000000
     3  O     c     0.220971    0.592963    0.566926    0.000000
     4  O     c     0.339962    0.079373    0.509566    0.000000
     5  O     c     0.816675    0.498810    0.722372    0.000000
     6  O     c     0.118974    0.986399    0.192649    0.000000
     7  O     c     0.938850    0.023621    0.530328    0.000000
     8  O     c     0.523285    0.080539    0.037218    0.000000
     9  O     c     0.169991    0.289673    0.879786    0.000000
    10  Sr    c     0.669986    0.289681    0.379787    0.000000
    11  Sr    c     0.595422    0.909938    0.710490    0.000000
    12  Sr    c     0.744528    0.669429    0.049089    0.000000
    13  Ti    c     0.096591    0.324836    0.655349    0.000000
    14  Ti    c     0.243371    0.254523    0.104233    0.000000
    15  Ti    c     0.169977    0.789683    0.379785    0.000000

  Final Cartesian lattice vectors (Angstroms) :

        5.911625    0.063731    0.166081
        0.063731    5.207190   -0.518034
        0.332161   -1.036068    7.549473

  Final cell parameters and derivatives :

       a            5.914301 Angstrom     dE/de1(xx)    -0.002398 eV/strain
       b            5.233283 Angstrom     dE/de2(yy)     0.000852 eV/strain
       c            7.627470 Angstrom     dE/de3(zz)     0.000950 eV/strain
       alpha      103.450329 Degrees      dE/de4(yz)     0.000421 eV/strain
       beta        85.994131 Degrees      dE/de5(xz)    -0.001608 eV/strain
       gamma       88.847419 Degrees      dE/de6(xy)     0.007499 eV/strain

  Primitive cell volume =           228.882353 Angs**3

  Density of cell =      3.993935 g/cm**3

  Non-primitive cell volume =           228.882353 Angs**3

  Final internal derivatives :

   No.  Atomic          a             b             c           Radius
        Label          (eV)          (eV)          (eV)        (eV/Angs)
      1 O     c       0.000000      0.000000      0.000000      0.000000
      2 O     c      -0.000510      0.000805     -0.001754      0.000000
      3 O     c       0.001588      0.001913     -0.001247      0.000000
      4 O     c       0.000910      0.001161     -0.000246      0.000000
      5 O     c       0.002379      0.001283      0.002244      0.000000
      6 O     c      -0.003299     -0.005982      0.001072      0.000000
      7 O     c      -0.000698      0.000832      0.002146      0.000000
      8 O     c      -0.000521     -0.004634     -0.000569      0.000000
      9 O     c       0.000668     -0.000539     -0.000471      0.000000
     10 Sr    c       0.001034      0.000162      0.000338      0.000000
     11 Sr    c      -0.001193     -0.002463      0.000706      0.000000
     12 Sr    c      -0.000489      0.002919     -0.001384      0.000000
     13 Ti    c      -0.002012      0.000142      0.009654      0.000000
     14 Ti    c       0.001459     -0.002433     -0.003277      0.000000
     15 Ti    c      -0.001783     -0.000088     -0.002875      0.000000
  Maximum abs         0.003299      0.005982      0.009654      0.000000

  Time to end of optimisation =       0.8219 seconds

 Exiting ------OPTIONS------

  Timing analysis for GULP :

  Task / Subroutine                                          Time (Seconds)
  Calculation of reciprocal space energy and derivatives          0.1007
  Calculation of real space energy and derivatives                0.6979
  Calculation of matrix inversion                                 0.0002
  Global summation overhead                                       0.0005

  Job Finished at 13:26.47 21st February   2020