  Job Started  at 13:26.49 21st February   2020

  Number of CPUs =     1

  Total number of configurations input =      1

*  Input for Configuration =   1                                               *

  Formula = O9Sr3Ti3

  Number of irreducible atoms/shells =      15

  Total number atoms/shells =      15

  Dimensionality = 3               :  Bulk

  Cartesian lattice vectors (Angstroms) :

        4.000000    0.000000    0.000000
        0.000000    4.000000    0.000000
        0.000000    0.000000    8.000000

  Cell parameters (Angstroms/Degrees):

  a =       4.0000    alpha =  90.0000
  b =       4.0000    beta  =  90.0000
  c =       8.0000    gamma =  90.0000

  Initial cell volume =         128.000000 Angs**3

  Temperature of configuration =  0.000     K

  Pressure of configuration =         0.000 GPa

  Fractional coordinates of asymmetric unit :

   No.  Atomic       x           y          z         Charge      Occupancy
        Label      (Frac)      (Frac)     (Frac)        (e)         (Frac)
      1 O     c    0.500000    0.500000    0.750000    -2.00000    1.000000
      2 O     c    0.500000 *  0.000000 *  0.750000 *  -2.00000    1.000000
      3 O     c    0.000000 *  0.500000 *  0.750000 *  -2.00000    1.000000
      4 O     c    0.000000 *  0.500000 *  0.000000 *  -2.00000    1.000000
      5 O     c    0.000000 *  0.000000 *  0.250000 *  -2.00000    1.000000
      6 O     c    0.500000 *  0.000000 *  0.250000 *  -2.00000    1.000000
      7 O     c    0.500000 *  0.500000 *  0.250000 *  -2.00000    1.000000
      8 O     c    0.500000 *  0.500000 *  0.500000 *  -2.00000    1.000000
      9 O     c    0.500000 *  0.000000 *  0.500000 *  -2.00000    1.000000
     10 Sr    c    0.250000 *  0.750000 *  0.375000 *   2.00000    1.000000
     11 Sr    c    0.250000 *  0.750000 *  0.875000 *   2.00000    1.000000
     12 Sr    c    0.250000 *  0.250000 *  0.625000 *   2.00000    1.000000
     13 Ti    c    0.250000 *  0.750000 *  0.625000 *   4.00000    1.000000
     14 Ti    c    0.750000 *  0.250000 *  0.875000 *   4.00000    1.000000
     15 Ti    c    0.750000 *  0.750000 *  0.375000 *   4.00000    1.000000

*  General input information                                                   *

  Species output for all configurations :

  Species    Type    Atomic    Atomic    Charge       Radii (Angs)     Library
                     Number     Mass       (e)     Cova   Ionic  VDW   Symbol
    O        Core        8      16.00  -2.000000   0.730  0.000  1.360
    Sr       Core       38      87.62   2.000000   1.120  0.000  1.670
    Ti       Core       22      47.88   4.000000   1.470  0.000  2.190

  Lattice summation method               =    Ewald          (3-D)
                                         =    Parry          (2-D)
                                         =    Saunders et al (1-D)
  Accuracy factor for lattice sums       =   12.000

  Time limit = Infinity

  Maximum range for interatomic potentials =    100000.000000 Angstroms

  General interatomic potentials :

Atom  Types   Potential      Parameter       Value         Units   Cutoffs(Ang)
  1     2                                                            Min /  Max
O    c Sr   c Buckingham    Buckingham A     1952.3900    eV        0.000 10.000
                            Buckingham rho  0.33685000    Ang
                            Buckingham C     19.220000    eV*Ang^6
O    c Ti   c Buckingham    Buckingham A     4590.7279    eV        0.000 10.000
                            Buckingham rho  0.26100000    Ang
                            Buckingham C     0.0000000    eV*Ang^6
O    c O    c Buckingham    Buckingham A     1388.7700    eV        0.000 10.000
                            Buckingham rho  0.36262000    Ang
                            Buckingham C     175.00000    eV*Ang^6
 Calling ------OPTIONS------

*  Output for configuration   1                                                *

  Components of energy :

  Interatomic potentials     =         283.74069147 eV
  Monopole - monopole (real) =        -200.67401279 eV
  Monopole - monopole (recip)=        -313.23454466 eV
  Monopole - monopole (total)=        -513.90855745 eV
  Total lattice energy       =        -230.16786598 eV
  Total lattice energy       =          -22207.6806 kJ/(mole unit cells)

  Number of variables =       48

  Maximum number of calculations  =          1000
  Maximum Hessian update interval =            10
  Maximum step size               =   0.001000000
  Maximum parameter tolerance     =   0.000010000
  Maximum function  tolerance     =   0.000010000
  Maximum gradient  tolerance     =   0.001000000
  Maximum gradient  component     =   0.010000000

  Cell parameters to be optimised using strains

  Conjugate gradient optimiser to be used

  Lower half triangular hessian to be used

  Minimiser to switch to BFGS with exact hessian
  When gradient norm is less than     0.500000

  Switch max step size to       0.10000000 when gnorm is less than    10.000000

  Start of bulk optimisation :

 Perform trimming
 ALPHA BEFORE:    1.0000000000000000
 XC BEFORE:   0.50000000000000000
  ** Opt : line minimisation
left   ...       0.00000000    -230.16786598
centre ...       0.00100000    -230.47284258
right  ...       0.00200000    -230.79029411

left   ...       0.00000000    -230.16786598
centre ...       0.00100000    -230.47284258
right  ...       0.00200000    -230.79029411
new    ...       0.00300000    -231.10709624

__s__    ...       0.00100000

[...]

 ALPHA AFTER:    6.0000000000000010E-003
 XC AFTER:   0.50013541085833690
 SANITY CHECK:    5.9999999999963893E-003
 DIRECTION dim            1  value    2.2568476389497587E-002
 DIRECTION dim            2  value   -1.3055069648517314E-003
 DIRECTION dim            3  value    2.2448690421472572E-002
 DIRECTION dim            4  value   -2.2568476389497584E-002
 DIRECTION dim            5  value    1.3055069648517275E-003
 DIRECTION dim            6  value   -4.4813349452158369E-002
 DIRECTION dim            7  value   -1.3416645871908703E-002
 DIRECTION dim            8  value   -1.2332566993782179E-002
 DIRECTION dim            9  value    3.2916138704582364E-003
 DIRECTION dim           10  value   -1.3416645871908706E-002
 DIRECTION dim           11  value    7.8463235527371795E-003
 DIRECTION dim           12  value    4.5190925505778192E-003
 DIRECTION dim           13  value    1.3416645871908694E-002
 DIRECTION dim           14  value    7.8463235527371691E-003
 DIRECTION dim           15  value   -3.5530323597243389E-002
 DIRECTION dim           16  value    1.3416645871908706E-002
 DIRECTION dim           17  value   -7.8463235527371812E-003
 DIRECTION dim           18  value   -2.9111927386237666E-002
 DIRECTION dim           19  value    2.2568476389497581E-002
 DIRECTION dim           20  value    5.7917504058967277E-003
 DIRECTION dim           21  value    3.0584246820116460E-002
 DIRECTION dim           22  value    2.2568476389497598E-002
 DIRECTION dim           23  value   -5.7917504058967355E-003
 DIRECTION dim           24  value    4.3421039242128132E-002
 DIRECTION dim           25  value   -3.3039655425651536E-002
 DIRECTION dim           26  value   -1.1776686001005657E-002
 DIRECTION dim           27  value   -6.4014734102805754E-002
 DIRECTION dim           28  value    1.1452012886827298E-003
 DIRECTION dim           29  value    2.2408170713328561E-002
 DIRECTION dim           30  value   0.12780364237674338
 DIRECTION dim           31  value   -3.3039655425651501E-002
 DIRECTION dim           32  value   -1.1013218475217190E-002
 DIRECTION dim           33  value   -4.1816126889574902E-002
 DIRECTION dim           34  value    9.5006847674399906E-003
 DIRECTION dim           35  value   -3.1668949224800025E-003
 DIRECTION dim           36  value    3.1204617379028361E-004
 DIRECTION dim           37  value   -2.7713196058724845E-003
 DIRECTION dim           38  value    5.4100166430025133E-003
 DIRECTION dim           39  value    8.0578264370272545E-002
 DIRECTION dim           40  value   -9.5006847674400097E-003
 DIRECTION dim           41  value    1.3193485185650068E-003
 DIRECTION dim           42  value  -0.11370246860800651
 DIRECTION dim           43  value   0.10641042372224095
 DIRECTION dim           44  value   0.11938636541325774
 DIRECTION dim           45  value    8.7045512930933280E-002
 DIRECTION dim           46  value    2.6785861345274601E-003
 DIRECTION dim           47  value   -3.4183656126954148E-003
 DIRECTION dim           48  value    2.9036573873909660E-005
 Perform trimming
 ALPHA BEFORE:    6.0000000000000010E-003
 XC BEFORE:   0.50013541085833690
  ** Opt : line minimisation
left   ...       0.00000000    -232.05361285
centre ...       0.00100000    -232.52471168
right  ...       0.00200000    -232.99437400

[...]

 ALPHA AFTER:    8.0000000000000019E-003
 XC AFTER:   0.50070800075137090
 SANITY CHECK:    7.9999999999916770E-003
 DIRECTION dim            1  value    5.0470760732554187E-002
 DIRECTION dim            2  value   -3.0254289196470266E-003
 DIRECTION dim            3  value    5.3838146012901600E-002
 DIRECTION dim            4  value   -5.0569909314149057E-002
 DIRECTION dim            5  value    3.8611546090638604E-003
 DIRECTION dim            6  value   -9.8261044885895210E-002
 DIRECTION dim            7  value   -3.1355763475552328E-002
 DIRECTION dim            8  value   -2.8872429042386853E-002
 DIRECTION dim            9  value    9.3094213124616382E-003
 DIRECTION dim           10  value   -3.0721863034633669E-002
 DIRECTION dim           11  value    1.8640969442453428E-002
 DIRECTION dim           12  value    8.9960402660593502E-003
 DIRECTION dim           13  value    3.0495380250869140E-002
 DIRECTION dim           14  value    1.7927394793031331E-002
 DIRECTION dim           15  value   -8.2192019282214479E-002
 DIRECTION dim           16  value    3.0764483766035560E-002
 DIRECTION dim           17  value   -1.8015589116935165E-002
 DIRECTION dim           18  value   -6.7427491303687803E-002
 DIRECTION dim           19  value    5.1875341034702351E-002
 DIRECTION dim           20  value    1.5214984843434542E-002
 DIRECTION dim           21  value    6.4069392460953917E-002
 DIRECTION dim           22  value    5.1937785501135217E-002
 DIRECTION dim           23  value   -1.5492935256271956E-002
 DIRECTION dim           24  value    9.2878500967313926E-002
 DIRECTION dim           25  value   -7.3691600233976404E-002
 DIRECTION dim           26  value   -2.7356709162624532E-002
 DIRECTION dim           27  value  -0.14170604867331599
 DIRECTION dim           28  value    3.7319575934965220E-003
 DIRECTION dim           29  value    5.0609498374335697E-002
 DIRECTION dim           30  value   0.28570913178739460
 DIRECTION dim           31  value   -7.5680277848452215E-002
 DIRECTION dim           32  value   -2.5254589906428374E-002
 DIRECTION dim           33  value   -9.3837788902175145E-002
 DIRECTION dim           34  value    2.2664502013605658E-002
 DIRECTION dim           35  value   -7.4129296918777430E-003
[...]
 DIRECTION dim           16  value   -8.1227077832986792E-003
 DIRECTION dim           17  value    6.6315694268689910E-003
 DIRECTION dim           18  value    2.7716660116328378E-003
 DIRECTION dim           19  value    1.3025511517431147E-002
 DIRECTION dim           20  value    1.1203544284189978E-003
 DIRECTION dim           21  value   -3.8521933516588243E-003
 DIRECTION dim           22  value   -2.2171847687048854E-003
 DIRECTION dim           23  value    2.7290666634455750E-003
 DIRECTION dim           24  value   -4.7658275681454233E-003
 DIRECTION dim           25  value   -1.3631040575464808E-002
 DIRECTION dim           26  value   -1.5092068369209290E-002
 DIRECTION dim           27  value   -4.1125705030272512E-003
 DIRECTION dim           28  value   -1.2202036229728770E-002
 DIRECTION dim           29  value    2.8741186512820226E-004
 DIRECTION dim           30  value   -4.6302012932985881E-003
 DIRECTION dim           31  value   -2.5487708288489700E-003
 DIRECTION dim           32  value   -3.7076989022943921E-003
 DIRECTION dim           33  value    1.0382831398692878E-002
 DIRECTION dim           34  value    5.4619498786753866E-003
 DIRECTION dim           35  value   -4.1440924625747375E-003
 DIRECTION dim           36  value    3.7781175665577713E-003
 DIRECTION dim           37  value   -3.7010155311245812E-003
 DIRECTION dim           38  value   -6.5573811965638582E-003
 DIRECTION dim           39  value   -1.2171881241125827E-003
 DIRECTION dim           40  value   -2.4570372271909551E-005
 DIRECTION dim           41  value    6.1690943351290816E-003
 DIRECTION dim           42  value   -7.4293577597610424E-003
 DIRECTION dim           43  value    3.2086496618712284E-004
 DIRECTION dim           44  value   -8.0513205553169962E-003
 DIRECTION dim           45  value   -6.4192553975433676E-003
 DIRECTION dim           46  value   -7.7322557633798979E-003
 DIRECTION dim           47  value   -2.8047033866695952E-003
 DIRECTION dim           48  value    1.0184973433775734E-002
  ** Hessian calculated **
 ALPHA BEFORE:    1.0000000000000000
 XC BEFORE:   0.52822993319703104
  ** Opt : line minimisation
left   ...       0.00000000    -466.59689461
centre ...       0.10000000    -466.70401811
right  ...       0.20000000    -466.80559237

[...]

 ALPHA AFTER:   0.25361678321078956
 XC AFTER:   0.47378369162732648
 SANITY CHECK:   0.25361678321077619
 DIRECTION dim            1  value   -6.9468880249564681E-004
 DIRECTION dim            2  value    2.7538741442148149E-004
 DIRECTION dim            3  value    2.9494350599574063E-004
 DIRECTION dim            4  value   -8.8094330776986485E-004
 DIRECTION dim            5  value    3.4359618920542996E-004
 DIRECTION dim            6  value    1.1419108129278801E-003
 DIRECTION dim            7  value   -2.1256897378338605E-003
 DIRECTION dim            8  value    6.7295135490861842E-004
 DIRECTION dim            9  value    1.7926682993614285E-003
 DIRECTION dim           10  value   -2.5184710238053626E-003
 DIRECTION dim           11  value    5.9937191724750291E-004
 DIRECTION dim           12  value    8.9181517610765473E-004
 DIRECTION dim           13  value   -1.7674466459064277E-003
 DIRECTION dim           14  value    4.9971984219962897E-004
 DIRECTION dim           15  value    4.3361324025482516E-004
 DIRECTION dim           16  value   -2.1491895869123869E-003
 DIRECTION dim           17  value    2.4740131686246819E-004
 DIRECTION dim           18  value   -5.1806222021323178E-004
 DIRECTION dim           19  value   -3.1961548540986456E-003
 DIRECTION dim           20  value    1.9931237456182150E-003
 DIRECTION dim           21  value    3.1537351663154857E-006
 DIRECTION dim           22  value   -3.2936850476637624E-003
 DIRECTION dim           23  value    1.3006916440194496E-003
 DIRECTION dim           24  value   -9.2129002817871585E-005
 DIRECTION dim           25  value   -1.8220550494800882E-003
 DIRECTION dim           26  value   -5.3748913492393513E-004
 DIRECTION dim           27  value    1.1242888107322109E-003
 DIRECTION dim           28  value   -2.9725112073986900E-003
 DIRECTION dim           29  value   -6.0366271023115279E-004
 DIRECTION dim           30  value    9.2988727440897006E-004
 DIRECTION dim           31  value   -1.7458954143830304E-003
 DIRECTION dim           32  value   -1.1526733680455311E-004
 DIRECTION dim           33  value    9.0948713364596132E-004
 DIRECTION dim           34  value   -1.3914296317458562E-003
 DIRECTION dim           35  value   -1.1312317275698922E-004
 DIRECTION dim           36  value    8.6754876772820121E-004
 DIRECTION dim           37  value   -1.5112565215896392E-003
 DIRECTION dim           38  value    2.0047872879412412E-004
 DIRECTION dim           39  value    7.6156498469001871E-004
 DIRECTION dim           40  value   -2.1991889636465943E-003
 DIRECTION dim           41  value    6.8715733235295677E-005
 DIRECTION dim           42  value    6.7853080675330142E-004
 DIRECTION dim           43  value    2.7380632259965719E-003
 DIRECTION dim           44  value    6.2776768995297094E-004
 DIRECTION dim           45  value   -1.3093115397080264E-003
 DIRECTION dim           46  value   -6.0828893063290148E-004
 DIRECTION dim           47  value   -2.2868586549221696E-003
 DIRECTION dim           48  value    4.9724926985117023E-004
 ALPHA BEFORE:   0.30506227082995596
 XC BEFORE:   0.47378369162732648
  ** Opt : line minimisation
left   ...       0.00000000    -470.45668146
centre ...       0.07626557    -470.45679329
right  ...       0.15253114    -470.45689337

[...]

 ALPHA AFTER:    0.0000000000000000
 XC AFTER:   0.47354340346683277
 SANITY CHECK:    0.0000000000000000
 DIRECTION dim            1  value    1.3954537101753940E-003
 DIRECTION dim            2  value    4.8592521556055822E-005
 DIRECTION dim            3  value   -2.0487132764037124E-004
 DIRECTION dim            4  value   -1.4877404661545003E-004
 DIRECTION dim            5  value    2.0763077102673535E-003
 DIRECTION dim            6  value    5.6112506740245058E-004
 DIRECTION dim            7  value   -3.2111103291078576E-004
 DIRECTION dim            8  value    9.9551003716789508E-004
 DIRECTION dim            9  value    7.9570122772806124E-004
 DIRECTION dim           10  value   -7.3283823353700373E-004
 DIRECTION dim           11  value    4.2833587835254018E-004
 DIRECTION dim           12  value    2.9754946125203833E-004
 DIRECTION dim           13  value   -1.4957907350967204E-004
 DIRECTION dim           14  value    1.4029758438788268E-004
 DIRECTION dim           15  value   -4.4691224391457121E-004
 DIRECTION dim           16  value   -5.8691479679833674E-004
 DIRECTION dim           17  value    2.8419793561683442E-004
 DIRECTION dim           18  value   -2.6911212247129380E-004
 DIRECTION dim           19  value   -1.7236790362213687E-003
 DIRECTION dim           20  value    1.3658558925797879E-003
 DIRECTION dim           21  value   -8.1415848669710508E-005
 DIRECTION dim           22  value   -1.2431226249133779E-003
 DIRECTION dim           23  value    2.8910119699937856E-003
 DIRECTION dim           24  value   -4.7505835017630038E-004
 DIRECTION dim           25  value   -3.2154455624061308E-004
 DIRECTION dim           26  value   -4.3151422192157560E-004
 DIRECTION dim           27  value    6.2832383827921554E-004
 DIRECTION dim           28  value   -1.0211416745970897E-003
 DIRECTION dim           29  value   -3.9356525336552834E-004
 DIRECTION dim           30  value    4.7956862766653868E-004
 DIRECTION dim           31  value   -6.6034645808469281E-004
 DIRECTION dim           32  value   -1.1105513018668351E-003
 DIRECTION dim           33  value    3.0402453473924438E-004
 DIRECTION dim           34  value    6.8243765740022745E-005
 DIRECTION dim           35  value   -3.3174598023980967E-006
 DIRECTION dim           36  value    5.7808337567387858E-004
 DIRECTION dim           37  value   -9.1361156344949297E-005
 DIRECTION dim           38  value    2.1607575693206003E-004
 DIRECTION dim           39  value    2.4554489299505127E-004
 DIRECTION dim           40  value   -7.0555399652970428E-004
 DIRECTION dim           41  value    4.1916487528047004E-004
 DIRECTION dim           42  value    1.2337361943000875E-004
 DIRECTION dim           43  value    6.9354199555728992E-004
 DIRECTION dim           44  value    4.0330516017222652E-004
 DIRECTION dim           45  value   -2.9564296533946894E-004
 DIRECTION dim           46  value   -6.1121366928039607E-004
 DIRECTION dim           47  value   -8.1647541519099432E-004
 DIRECTION dim           48  value    5.8942650335621185E-004
  ** Hessian calculated **
 ALPHA BEFORE:    1.0000000000000000
 XC BEFORE:   0.47354340346683277
  ** Opt : line minimisation
left   ...       0.00000000    -470.45701557
centre ...       0.10000000    -470.45692707
right  ...      -0.10000000    -470.45692033

left   ...      -0.10000000    -470.45692033
centre ...       0.00000000    -470.45701557
right  ...       0.10000000    -470.45692707
new    ...       0.00000000    -470.45701557

__s__    ...       0.10000000

 ALPHA AFTER:    0.0000000000000000
 XC AFTER:   0.47354340346683277
 SANITY CHECK:    0.0000000000000000
 DIRECTION dim            1  value    1.3954537101753940E-003
 DIRECTION dim            2  value    4.8592521556055822E-005
 DIRECTION dim            3  value   -2.0487132764037124E-004
 DIRECTION dim            4  value   -1.4877404661545003E-004
 DIRECTION dim            5  value    2.0763077102673535E-003
 DIRECTION dim            6  value    5.6112506740245058E-004
 DIRECTION dim            7  value   -3.2111103291078576E-004
 DIRECTION dim            8  value    9.9551003716789508E-004
 DIRECTION dim            9  value    7.9570122772806124E-004
 DIRECTION dim           10  value   -7.3283823353700373E-004
 DIRECTION dim           11  value    4.2833587835254018E-004
 DIRECTION dim           12  value    2.9754946125203833E-004
 DIRECTION dim           13  value   -1.4957907350967204E-004
 DIRECTION dim           14  value    1.4029758438788268E-004
 DIRECTION dim           15  value   -4.4691224391457121E-004
 DIRECTION dim           16  value   -5.8691479679833674E-004
 DIRECTION dim           17  value    2.8419793561683442E-004
 DIRECTION dim           18  value   -2.6911212247129380E-004
 DIRECTION dim           19  value   -1.7236790362213687E-003
 DIRECTION dim           20  value    1.3658558925797879E-003
 DIRECTION dim           21  value   -8.1415848669710508E-005
 DIRECTION dim           22  value   -1.2431226249133779E-003
 DIRECTION dim           23  value    2.8910119699937856E-003
 DIRECTION dim           24  value   -4.7505835017630038E-004
 DIRECTION dim           25  value   -3.2154455624061308E-004
 DIRECTION dim           26  value   -4.3151422192157560E-004
 DIRECTION dim           27  value    6.2832383827921554E-004
 DIRECTION dim           28  value   -1.0211416745970897E-003
 DIRECTION dim           29  value   -3.9356525336552834E-004
 DIRECTION dim           30  value    4.7956862766653868E-004
 DIRECTION dim           31  value   -6.6034645808469281E-004
 DIRECTION dim           32  value   -1.1105513018668351E-003
 DIRECTION dim           33  value    3.0402453473924438E-004
 DIRECTION dim           34  value    6.8243765740022745E-005
 DIRECTION dim           35  value   -3.3174598023980967E-006
 DIRECTION dim           36  value    5.7808337567387858E-004
 DIRECTION dim           37  value   -9.1361156344949297E-005
 DIRECTION dim           38  value    2.1607575693206003E-004
 DIRECTION dim           39  value    2.4554489299505127E-004
 DIRECTION dim           40  value   -7.0555399652970428E-004
 DIRECTION dim           41  value    4.1916487528047004E-004
 DIRECTION dim           42  value    1.2337361943000875E-004
 DIRECTION dim           43  value    6.9354199555728992E-004
 DIRECTION dim           44  value    4.0330516017222652E-004
 DIRECTION dim           45  value   -2.9564296533946894E-004
 DIRECTION dim           46  value   -6.1121366928039607E-004
 DIRECTION dim           47  value   -8.1647541519099432E-004
 DIRECTION dim           48  value    5.8942650335621185E-004

  **** Conditions for a minimum have not been satisfied. However ****
  **** no lower point can be found - treat results with caution  ****
  **** unless gradient norm is small (less than 0.1)             ****

  Final energy =    -470.45701557 eV
  Final Gnorm  =       0.01465050

  Components of energy :

  Interatomic potentials     =          70.42495843 eV
  Monopole - monopole (real) =        -256.46087884 eV
  Monopole - monopole (recip)=        -284.42109515 eV
  Monopole - monopole (total)=        -540.88197400 eV
  Total lattice energy       =        -470.45701557 eV
  Total lattice energy       =          -45391.9104 kJ/(mole unit cells)

  Final fractional coordinates of atoms :

   No.  Atomic        x           y          z          Radius
        Label       (Frac)      (Frac)     (Frac)       (Angs)
     1  O     c     0.500000    0.500000    0.750000    0.000000
     2  O     c     0.473543    0.019102    0.780703    0.000000
     3  O     c     0.084129    0.667661    0.636642    0.000000
     4  O     c     0.814285    0.338976    0.967336    0.000000
     5  O     c     0.770702    0.990583    0.253091    0.000000
     6  O     c     0.368114    0.158779    0.122123    0.000000
     7  O     c     0.361473    0.643294    0.092590    0.000000
     8  O     c     0.569100    0.655606    0.417966    0.000000
     9  O     c     0.269945    0.006575    0.451963    0.000000
    10  Sr    c     0.971781    0.468301    0.277909    0.000000
    11  Sr    c     0.968523    0.836669    0.956774    0.000000
    12  Sr    c     0.893661    0.193848    0.603780    0.000000
    13  Ti    c     0.392458    0.733588    0.620444    0.000000
    14  Ti    c     0.492237    0.331628    0.946075    0.000000
    15  Ti    c     0.463626    0.921312    0.258751    0.000000

  Final Cartesian lattice vectors (Angstroms) :

        5.663554    0.133085    0.080865
        0.133085    5.230927   -0.516701
        0.161731   -1.033402    7.717178

  Final cell parameters and derivatives :

       a            5.665695 Angstrom     dE/de1(xx)    -0.276618 eV/strain
       b            5.258069 Angstrom     dE/de2(yy)    -0.178086 eV/strain
       c            7.787741 Angstrom     dE/de3(zz)    -0.041351 eV/strain
       alpha      103.230154 Degrees      dE/de4(yz)     0.011752 eV/strain
       beta        88.178492 Degrees      dE/de5(xz)     0.031365 eV/strain
       gamma       87.290791 Degrees      dE/de6(xy)    -0.024988 eV/strain

  Primitive cell volume =           225.374893 Angs**3

  Density of cell =      4.056092 g/cm**3

  Non-primitive cell volume =           225.374893 Angs**3

  Final internal derivatives :

   No.  Atomic          a             b             c           Radius
        Label          (eV)          (eV)          (eV)        (eV/Angs)
      1 O     c       0.000000      0.000000      0.000000      0.000000
      2 O     c       0.010951     -0.014153     -0.077380      0.000000
      3 O     c       0.152029      0.039881     -0.084636      0.000000
      4 O     c      -0.120529      0.000707     -0.156474      0.000000
      5 O     c      -0.212811     -0.014676      0.071763      0.000000
      6 O     c       0.006632     -0.026293      0.041424      0.000000
      7 O     c       0.030348      0.077637      0.225842      0.000000
      8 O     c       0.034614     -0.009886      0.173357      0.000000
      9 O     c       0.052981     -0.108595      0.163697      0.000000
     10 Sr    c      -0.001245      0.034186     -0.079164      0.000000
     11 Sr    c       0.001035      0.015816      0.045771      0.000000
     12 Sr    c       0.016058     -0.022884      0.001241      0.000000
     13 Ti    c      -0.189482      0.079897     -0.131477      0.000000
     14 Ti    c       0.104714      0.026634     -0.075370      0.000000
     15 Ti    c       0.051516     -0.000015     -0.178042      0.000000
  Maximum abs         0.212811      0.108595      0.225842      0.000000

  Time to end of optimisation =       0.4987 seconds

 Exiting ------OPTIONS------

  Timing analysis for GULP :

  Task / Subroutine                                          Time (Seconds)
  Calculation of reciprocal space energy and derivatives          0.0641
  Calculation of real space energy and derivatives                0.4167
  Calculation of matrix inversion                                 0.0002
  Global summation overhead                                       0.0003

  Job Finished at 13:26.50 21st February   2020