  Job Started  at 12:05.33  4th February   2020

  Number of CPUs =     1

  Total number of configurations input =      1

*  Input for Configuration =   1                                               *

  Formula = O9Sr3Ti3

  Number of irreducible atoms/shells =      15

  Total number atoms/shells =      15

  Dimensionality = 3               :  Bulk

  Cartesian lattice vectors (Angstroms) :

        4.000000    0.000000    0.000000
        0.000000    4.000000    0.000000
        0.000000    0.000000    8.000000

  Cell parameters (Angstroms/Degrees):

  a =       4.0000    alpha =  90.0000
  b =       4.0000    beta  =  90.0000
  c =       8.0000    gamma =  90.0000

  Initial cell volume =         128.000000 Angs**3

  Temperature of configuration =  0.000     K

  Pressure of configuration =         0.000 GPa

  Fractional coordinates of asymmetric unit :

   No.  Atomic       x           y          z         Charge      Occupancy
        Label      (Frac)      (Frac)     (Frac)        (e)         (Frac)
      1 O     c    0.000000    0.500000    0.250000    -2.00000    1.000000
      2 O     c    0.500000 *  0.500000 *  0.250000 *  -2.00000    1.000000
      3 O     c    0.000000 *  0.500000 *  0.500000 *  -2.00000    1.000000
      4 O     c    0.500000 *  0.000000 *  0.500000 *  -2.00000    1.000000
      5 O     c    0.500000 *  0.500000 *  0.750000 *  -2.00000    1.000000
      6 O     c    0.000000 *  0.000000 *  0.000000 *  -2.00000    1.000000
      7 O     c    0.000000 *  0.000000 *  0.500000 *  -2.00000    1.000000
      8 O     c    0.500000 *  0.000000 *  0.000000 *  -2.00000    1.000000
      9 O     c    0.000000 *  0.500000 *  0.750000 *  -2.00000    1.000000
     10 Sr    c    0.750000 *  0.250000 *  0.375000 *   2.00000    1.000000
     11 Sr    c    0.750000 *  0.750000 *  0.875000 *   2.00000    1.000000
     12 Sr    c    0.750000 *  0.750000 *  0.125000 *   2.00000    1.000000
     13 Ti    c    0.750000 *  0.250000 *  0.875000 *   4.00000    1.000000
     14 Ti    c    0.250000 *  0.250000 *  0.125000 *   4.00000    1.000000
     15 Ti    c    0.250000 *  0.750000 *  0.125000 *   4.00000    1.000000

*  General input information                                                   *

  Species output for all configurations :

  Species    Type    Atomic    Atomic    Charge       Radii (Angs)     Library
                     Number     Mass       (e)     Cova   Ionic  VDW   Symbol
    O        Core        8      16.00  -2.000000   0.730  0.000  1.360
    Sr       Core       38      87.62   2.000000   1.120  0.000  1.670
    Ti       Core       22      47.88   4.000000   1.470  0.000  2.190

  Lattice summation method               =    Ewald          (3-D)
                                         =    Parry          (2-D)
                                         =    Saunders et al (1-D)
  Accuracy factor for lattice sums       =   12.000

  Time limit = Infinity

  Maximum range for interatomic potentials =    100000.000000 Angstroms

  General interatomic potentials :

Atom  Types   Potential      Parameter       Value         Units   Cutoffs(Ang)
  1     2                                                            Min /  Max
O    c Sr   c Buckingham    Buckingham A     1952.3900    eV        0.000 10.000
                            Buckingham rho  0.33685000    Ang
                            Buckingham C     19.220000    eV*Ang^6
O    c Ti   c Buckingham    Buckingham A     4590.7279    eV        0.000 10.000
                            Buckingham rho  0.26100000    Ang
                            Buckingham C     0.0000000    eV*Ang^6
O    c O    c Buckingham    Buckingham A     1388.7700    eV        0.000 10.000
                            Buckingham rho  0.36262000    Ang
                            Buckingham C     175.00000    eV*Ang^6
 Calling ------OPTIONS------

*  Output for configuration   1                                                *

  Components of energy :

  Interatomic potentials     =         252.05488473 eV
  Monopole - monopole (real) =        -121.78183040 eV
  Monopole - monopole (recip)=        -176.23510212 eV
  Monopole - monopole (total)=        -298.01693251 eV
  Total lattice energy       =         -45.96204778 eV
  Total lattice energy       =           -4434.6350 kJ/(mole unit cells)

  Number of variables =       48

  Maximum number of calculations  =          1000
  Maximum Hessian update interval =            10
  Maximum step size               =   0.001000000
  Maximum parameter tolerance     =   0.000010000
  Maximum function  tolerance     =   0.000010000
  Maximum gradient  tolerance     =   0.001000000
  Maximum gradient  component     =   0.010000000

  Cell parameters to be optimised using strains

  Conjugate gradient optimiser to be used

  Lower half triangular hessian to be used

  Minimiser to switch to BFGS with exact hessian
  When gradient norm is less than     0.500000

  Switch max step size to       0.10000000 when gnorm is less than    10.000000

  Start of bulk optimisation :

 Perform trimming
 Line minimisation2
 ALPHA BEFORE:    1.0000000000000000
  ** Opt : line minimisation
left   ...       0.00000000     -45.96204778
centre ...       0.00100000     -46.47344849
right  ...       0.00200000     -46.99396676

left   ...       0.00000000     -45.96204778
centre ...       0.00100000     -46.47344849
right  ...       0.00200000     -46.99396676
new    ...       0.00300000     -47.51362827

__s__    ...       0.00100000

[...]

 ALPHA AFTER:    8.0000000000000019E-003
 Perform trimming
 Line minimisation2
 ALPHA BEFORE:    8.0000000000000019E-003
  ** Opt : line minimisation
left   ...       0.00000000     -50.09910889
centre ...       0.00100000     -50.87061050
right  ...       0.00200000     -51.64020626

[...]

 ALPHA AFTER:    8.0000000000000019E-003
 Line minimisation2
 ALPHA BEFORE:    8.0000000000000019E-003
  ** Opt : line minimisation
left   ...       0.00000000     -96.47012961
centre ...       0.00100000     -98.51383448
right  ...       0.00200000    -100.54230603

[...]

 ALPHA AFTER:   0.50000000000000000
 Perform trimming
 Line minimisation2
 ALPHA BEFORE:   0.50000000000000000
  ** Opt : line minimisation
left   ...       0.00000000    -467.87036787
centre ...       0.10000000    -467.99866426
right  ...       0.20000000    -468.11706431

[...]

 ALPHA AFTER:   0.50000000000000000
  ** Hessian calculated **
 Line minimisation2
 ALPHA BEFORE:    1.0000000000000000
  ** Opt : line minimisation
left   ...       0.00000000    -468.86565125
centre ...       0.10000000    -468.89333424
right  ...       0.20000000    -468.92053305

[...]

 ALPHA AFTER:   0.30000000000000004
  ** Hessian calculated **
 Line minimisation2
 ALPHA BEFORE:    1.0000000000000000
  ** Opt : line minimisation
left   ...       0.00000000    -472.53016818
centre ...       0.10000000    -472.53016864
right  ...       0.20000000    -472.53016904

[...]

 ALPHA AFTER:   0.30000000000000004
 Line minimisation2
 ALPHA BEFORE:   0.35556139380897117
  ** Opt : line minimisation
left   ...       0.00000000    -472.53016940
centre ...       0.08889035    -472.53016965
right  ...       0.17778070    -472.53016987

left   ...       0.00000000    -472.53016940
centre ...       0.08889035    -472.53016965
right  ...       0.17778070    -472.53016987
new    ...       0.27778070    -472.53017010

__s__    ...       0.10000000

 ALPHA AFTER:   0.27778069690448559

  **** Optimisation achieved ****

  Final energy =    -472.53017010 eV
  Final Gnorm  =       0.00037073

  Components of energy :

  Interatomic potentials     =          69.66308720 eV
  Monopole - monopole (real) =        -259.20537015 eV
  Monopole - monopole (recip)=        -282.98788715 eV
  Monopole - monopole (total)=        -542.19325730 eV
  Total lattice energy       =        -472.53017010 eV
  Total lattice energy       =          -45591.9381 kJ/(mole unit cells)

  Final fractional coordinates of atoms :

   No.  Atomic        x           y          z          Radius
        Label       (Frac)      (Frac)     (Frac)       (Angs)
     1  O     c     0.000000    0.500000    0.250000    0.000000
     2  O     c     0.401110    0.555743    0.229251    0.000000
     3  O     c     0.220971    0.592963    0.566926    0.000000
     4  O     c     0.339962    0.079373    0.509566    0.000000
     5  O     c     0.816675    0.498810    0.722372    0.000000
     6  O     c     0.118974    0.986399    0.192649    0.000000
     7  O     c     0.938850    0.023621    0.530328    0.000000
     8  O     c     0.523285    0.080539    0.037218    0.000000
     9  O     c     0.169991    0.289673    0.879786    0.000000
    10  Sr    c     0.669986    0.289681    0.379787    0.000000
    11  Sr    c     0.595422    0.909938    0.710490    0.000000
    12  Sr    c     0.744528    0.669429    0.049089    0.000000
    13  Ti    c     0.096591    0.324836    0.655349    0.000000
    14  Ti    c     0.243371    0.254523    0.104233    0.000000
    15  Ti    c     0.169977    0.789683    0.379785    0.000000

  Final Cartesian lattice vectors (Angstroms) :

        5.911625    0.063731    0.166081
        0.063731    5.207190   -0.518034
        0.332161   -1.036068    7.549473

  Final cell parameters and derivatives :

       a            5.914301 Angstrom     dE/de1(xx)    -0.002398 eV/strain
       b            5.233283 Angstrom     dE/de2(yy)     0.000852 eV/strain
       c            7.627470 Angstrom     dE/de3(zz)     0.000950 eV/strain
       alpha      103.450329 Degrees      dE/de4(yz)     0.000421 eV/strain
       beta        85.994131 Degrees      dE/de5(xz)    -0.001608 eV/strain
       gamma       88.847419 Degrees      dE/de6(xy)     0.007499 eV/strain

  Primitive cell volume =           228.882353 Angs**3

  Density of cell =      3.993935 g/cm**3

  Non-primitive cell volume =           228.882353 Angs**3

  Final internal derivatives :

   No.  Atomic          a             b             c           Radius
        Label          (eV)          (eV)          (eV)        (eV/Angs)
      1 O     c       0.000000      0.000000      0.000000      0.000000
      2 O     c      -0.000510      0.000805     -0.001754      0.000000
      3 O     c       0.001588      0.001913     -0.001247      0.000000
      4 O     c       0.000910      0.001161     -0.000246      0.000000
      5 O     c       0.002379      0.001283      0.002244      0.000000
      6 O     c      -0.003299     -0.005982      0.001072      0.000000
      7 O     c      -0.000698      0.000832      0.002146      0.000000
      8 O     c      -0.000521     -0.004634     -0.000569      0.000000
      9 O     c       0.000668     -0.000539     -0.000471      0.000000
     10 Sr    c       0.001034      0.000162      0.000338      0.000000
     11 Sr    c      -0.001193     -0.002463      0.000706      0.000000
     12 Sr    c      -0.000489      0.002919     -0.001384      0.000000
     13 Ti    c      -0.002012      0.000142      0.009654      0.000000
     14 Ti    c       0.001459     -0.002433     -0.003277      0.000000
     15 Ti    c      -0.001783     -0.000088     -0.002875      0.000000
  Maximum abs         0.003299      0.005982      0.009654      0.000000

  Time to end of optimisation =       0.7639 seconds

 Exiting ------OPTIONS------

  Timing analysis for GULP :

  Task / Subroutine                                          Time (Seconds)
  Calculation of reciprocal space energy and derivatives          0.0969
  Calculation of real space energy and derivatives                0.6492
  Calculation of matrix inversion                                 0.0002
  Global summation overhead                                       0.0005

  Job Finished at 12:05.33  4th February   2020