  Job Started  at 13:26.38 21st February   2020

  Number of CPUs =     1

  Total number of configurations input =      1

*  Input for Configuration =   1                                               *

  Formula = Sr3Ti3O9

  Number of irreducible atoms/shells =      15

  Total number atoms/shells =      15

  Dimensionality = 3               :  Bulk

  Cartesian lattice vectors (Angstroms) :

       12.000000    0.000000    0.000000
        0.000000    4.000000    0.000000
        0.000000    0.000000    4.000000

  Cell parameters (Angstroms/Degrees):

  a =      12.0000    alpha =  90.0000
  b =       4.0000    beta  =  90.0000
  c =       4.0000    gamma =  90.0000

  Initial cell volume =         192.000000 Angs**3

  Temperature of configuration =  0.000     K

  Pressure of configuration =         0.000 GPa

  Fractional coordinates of asymmetric unit :

   No.  Atomic       x           y          z         Charge      Occupancy
        Label      (Frac)      (Frac)     (Frac)        (e)         (Frac)
      1 Sr    c    0.999850    0.000360    0.999990     2.00000    1.000000
      2 Ti    c    0.166710 *  0.500030 *  0.500050 *   4.00000    1.000000
      3 O     c    0.000050 *  0.500680 *  0.500190 *  -2.00000    1.000000
      4 O     c    0.166570 *  0.999870 *  0.499700 *  -2.00000    1.000000
      5 O     c    0.166600 *  0.499850 *  0.999910 *  -2.00000    1.000000
      6 Sr    c    0.333370 *  0.000290 *  0.999980 *   2.00000    1.000000
      7 Ti    c    0.500060 *  0.500190 *  0.500580 *   4.00000    1.000000
      8 O     c    0.333440 *  0.499320 *  0.500160 *  -2.00000    1.000000
      9 O     c    0.500070 *  0.000580 *  0.500650 *  -2.00000    1.000000
     10 O     c    0.500040 *  0.499980 *  0.999500 *  -2.00000    1.000000
     11 Sr    c    0.666980 *  0.000650 *  0.999700 *   2.00000    1.000000
     12 Ti    c    0.833180 *  0.500010 *  0.500730 *   4.00000    1.000000
     13 O     c    0.666770 *  0.499940 *  0.500100 *  -2.00000    1.000000
     14 O     c    0.833490 *  0.000170 *  0.499850 *  -2.00000    1.000000
     15 O     c    0.833340 *  0.499170 *  0.000420 *  -2.00000    1.000000

*  General input information                                                   *

  Species output for all configurations :

  Species    Type    Atomic    Atomic    Charge       Radii (Angs)     Library
                     Number     Mass       (e)     Cova   Ionic  VDW   Symbol
    Sr       Core       38      87.62   2.000000   1.120  0.000  1.670
    Ti       Core       22      47.88   4.000000   1.470  0.000  2.190
    O        Core        8      16.00  -2.000000   0.730  0.000  1.360

  Lattice summation method               =    Ewald          (3-D)
                                         =    Parry          (2-D)
                                         =    Saunders et al (1-D)
  Accuracy factor for lattice sums       =   12.000

  Time limit = Infinity

  Maximum range for interatomic potentials =    100000.000000 Angstroms

  General interatomic potentials :

Atom  Types   Potential      Parameter       Value         Units   Cutoffs(Ang)
  1     2                                                            Min /  Max
O    c Sr   c Buckingham    Buckingham A     1952.3900    eV        0.000 10.000
                            Buckingham rho  0.33685000    Ang
                            Buckingham C     19.220000    eV*Ang^6
O    c Ti   c Buckingham    Buckingham A     4590.7279    eV        0.000 10.000
                            Buckingham rho  0.26100000    Ang
                            Buckingham C     0.0000000    eV*Ang^6
O    c O    c Buckingham    Buckingham A     1388.7700    eV        0.000 10.000
                            Buckingham rho  0.36262000    Ang
                            Buckingham C     175.00000    eV*Ang^6
 Calling ------OPTIONS------

*  Output for configuration   1                                                *

  Components of energy :

  Interatomic potentials     =          59.32167851 eV
  Monopole - monopole (real) =        -234.57426617 eV
  Monopole - monopole (recip)=        -300.12329799 eV
  Monopole - monopole (total)=        -534.69756416 eV
  Total lattice energy       =        -475.37588565 eV
  Total lattice energy       =          -45866.5062 kJ/(mole unit cells)

  Number of variables =       48

  Maximum number of calculations  =          1000
  Maximum Hessian update interval =            10
  Maximum step size               =   1.000000000
  Maximum parameter tolerance     =   0.000010000
  Maximum function  tolerance     =   0.000010000
  Maximum gradient  tolerance     =   0.001000000
  Maximum gradient  component     =   0.010000000

  Cell parameters to be optimised using strains

  Conjugate gradient optimiser to be used

  Lower half triangular hessian to be used

  Start of bulk optimisation :

 ALPHA BEFORE:    1.0000000000000000
 XC BEFORE:   0.16670999999996639
  ** Opt : line minimisation
left   ...       0.00000000    -475.37588565
centre ...       0.25000000    -475.45937155
right  ...       0.50000000    -475.50636435

left   ...       0.00000000    -475.37588565
centre ...       0.25000000    -475.45937155
right  ...       0.50000000    -475.50636435
new    ...       0.69692938    -475.51707715

__s__    ...       0.19692938

 ALPHA AFTER:   0.69692938194025855
 XC AFTER:   0.16587196630029921
 SANITY CHECK:   0.69692938194025578
 DIRECTION dim            1  value   -1.2024657323731743E-003
 DIRECTION dim            2  value   -1.4624340086751991E-005
 DIRECTION dim            3  value   -5.9944495076537384E-005
 DIRECTION dim            4  value   -5.9491571097865204E-004
 DIRECTION dim            5  value   -1.3826404588736645E-004
 DIRECTION dim            6  value    7.0492835192256773E-005
 DIRECTION dim            7  value    8.5028509523215853E-004
 DIRECTION dim            8  value    3.8938392416596192E-005
 DIRECTION dim            9  value    6.0797380187222078E-005
 DIRECTION dim           10  value    7.7832982111693738E-004
 DIRECTION dim           11  value    1.8428572950291002E-005
 DIRECTION dim           12  value    1.3304744451970586E-005
 DIRECTION dim           13  value   -1.8489013132836157E-004
 DIRECTION dim           14  value   -3.6511883059549027E-006
 DIRECTION dim           15  value    2.4227125341381029E-005
 DIRECTION dim           16  value   -4.7261367026364166E-004
 DIRECTION dim           17  value   -8.9659484970732670E-005
 DIRECTION dim           18  value   -1.9556355760178416E-004
 DIRECTION dim           19  value   -2.1197885556706084E-004
 DIRECTION dim           20  value    2.4440921983384851E-004
 DIRECTION dim           21  value   -5.7427681074029365E-005
 DIRECTION dim           22  value    3.2718088415547967E-004
 DIRECTION dim           23  value   -3.1266317537894593E-004
 DIRECTION dim           24  value   -1.7157182003515266E-004
 DIRECTION dim           25  value    3.7120496703148324E-004
 DIRECTION dim           26  value    1.7330984358194225E-004
 DIRECTION dim           27  value    3.8210338224508678E-004
 DIRECTION dim           28  value   -5.2618689704136501E-004
 DIRECTION dim           29  value   -4.2521077999712478E-005
 DIRECTION dim           30  value    1.0558794541978451E-004
 DIRECTION dim           31  value    2.3616314741375924E-003
 DIRECTION dim           32  value   -3.0418884413765892E-005
 DIRECTION dim           33  value   -3.6264390165414648E-004
 DIRECTION dim           34  value   -7.0374454798761142E-006
 DIRECTION dim           35  value    1.3153026421360841E-004
 DIRECTION dim           36  value    6.6392001479191197E-005
 DIRECTION dim           37  value   -1.1402085083537579E-003
 DIRECTION dim           38  value   -1.5712532843461597E-004
 DIRECTION dim           39  value    2.3714138937471743E-004
 DIRECTION dim           40  value   -8.5902318902443629E-004
 DIRECTION dim           41  value    2.2270034889450719E-004
 DIRECTION dim           42  value   -1.6864016634092079E-004
 DIRECTION dim           43  value   -1.1451638330899887E-002
 DIRECTION dim           44  value   -1.1451319811911099E-002
 DIRECTION dim           45  value   -1.1449806633736754E-002
 DIRECTION dim           46  value   -2.0525119489064099E-007
 DIRECTION dim           47  value    6.9568005814560863E-008
 DIRECTION dim           48  value    4.7978196225833996E-008
 Perform trimming
 ALPHA BEFORE:   0.69692938194025855
 XC BEFORE:   0.16587196630029921
  ** Opt : line minimisation
left   ...       0.00000000    -475.51707715
centre ...       0.17423235    -475.56576597
right  ...       0.34846469    -475.52905485

[...]

 ALPHA AFTER:   0.18700951380719669
 XC AFTER:   0.16672031804578943
 SANITY CHECK:   0.18700951380719705
 DIRECTION dim            1  value    4.5364095559590374E-003
 DIRECTION dim            2  value   -1.9203984823817703E-005
 DIRECTION dim            3  value   -9.1295369769293173E-005
 DIRECTION dim            4  value    6.2488703733242553E-004
 DIRECTION dim            5  value   -2.3595446403170694E-004
 DIRECTION dim            6  value    9.6786585988592317E-005
 DIRECTION dim            7  value   -2.1145116640076656E-003
 DIRECTION dim            8  value    6.8050091560498536E-005
 DIRECTION dim            9  value    9.7591038644577306E-005
 DIRECTION dim           10  value   -2.1910181578145582E-003
 DIRECTION dim           11  value    3.0773922871199570E-005
 DIRECTION dim           12  value    2.6697770398407193E-005
 DIRECTION dim           13  value    9.5381701976195480E-004
 DIRECTION dim           14  value   -1.3271315933428237E-005
 DIRECTION dim           15  value    3.9761143217299166E-005
 DIRECTION dim           16  value    2.3819133272290952E-003
 DIRECTION dim           17  value   -1.2235225635940785E-004
 DIRECTION dim           18  value   -3.2241497315172184E-004
 DIRECTION dim           19  value   -1.1964616166544766E-003
 DIRECTION dim           20  value    3.9267237365697130E-004
 DIRECTION dim           21  value   -9.0234255243483905E-005
 DIRECTION dim           22  value   -1.1322225616292856E-003
 DIRECTION dim           23  value   -4.8645235915169489E-004
 DIRECTION dim           24  value   -2.7590689967388625E-004
 DIRECTION dim           25  value   -1.0745211851425427E-003
 DIRECTION dim           26  value    2.6110963508725105E-004
 DIRECTION dim           27  value    6.1539099969592679E-004
 DIRECTION dim           28  value   -1.1962528739691601E-003
 DIRECTION dim           29  value   -8.1312532826531767E-005
 DIRECTION dim           30  value    1.7163798825582728E-004
 DIRECTION dim           31  value   -6.9612413646434647E-003
 DIRECTION dim           32  value   -3.6683981423653318E-005
 DIRECTION dim           33  value   -5.6173070100334161E-004
 DIRECTION dim           34  value    4.8874471075737640E-004
 DIRECTION dim           35  value    1.9801122791422617E-004
 DIRECTION dim           36  value    9.8111889747717909E-005
 DIRECTION dim           37  value    3.1430031913055327E-003
 DIRECTION dim           38  value   -2.4189032397349238E-004
 DIRECTION dim           39  value    3.6160911950600485E-004
 DIRECTION dim           40  value    3.4737815662824146E-003
 DIRECTION dim           41  value    3.5936949597371344E-004
 DIRECTION dim           42  value   -2.5374705451700470E-004
 DIRECTION dim           43  value   -1.6318017663204121E-002
 DIRECTION dim           44  value   -1.6308832935618862E-002
 DIRECTION dim           45  value   -1.6306812300339729E-002
 DIRECTION dim           46  value   -3.4657952510747932E-007
 DIRECTION dim           47  value   -2.5881157783861278E-007
 DIRECTION dim           48  value   -8.7982499528187455E-008
 ALPHA BEFORE:   0.18700951380719669
 XC BEFORE:   0.16672031804578943
  ** Opt : line minimisation
left   ...       0.00000000    -475.56599740
centre ...       0.04675238    -475.56652541
right  ...       0.09350476    -475.56686297

[...]

 ALPHA AFTER:   0.37424616744903300
 XC AFTER:   0.16652253458220106
 SANITY CHECK:   0.37424616745224060
 DIRECTION dim            1  value   -4.8534883917704892E-006
 DIRECTION dim            2  value    9.6547178604534414E-006
 DIRECTION dim            3  value    5.7736568998521989E-006
 DIRECTION dim            4  value   -3.6313039841752459E-006
 DIRECTION dim            5  value    3.3203058134923613E-005
 DIRECTION dim            6  value    7.9147032351252810E-006
 DIRECTION dim            7  value   -2.9590488397324283E-006
 DIRECTION dim            8  value    1.0721835407890530E-005
 DIRECTION dim            9  value    5.5607199257461244E-006
 DIRECTION dim           10  value    3.8950587886786769E-006
 DIRECTION dim           11  value    8.7307552836586520E-006
 DIRECTION dim           12  value    6.0407138880164714E-006
 DIRECTION dim           13  value    6.7217425576675184E-006
 DIRECTION dim           14  value    3.2960940845581636E-006
 DIRECTION dim           15  value    5.8671810345496104E-007
 DIRECTION dim           16  value   -7.1005222769245567E-006
 DIRECTION dim           17  value   -1.2925778520431208E-006
 DIRECTION dim           18  value   -6.1496179824794916E-006
 DIRECTION dim           19  value   -3.4287791717014187E-006
 DIRECTION dim           20  value   -1.4835203840799117E-005
 DIRECTION dim           21  value   -2.1439142832098013E-006
 DIRECTION dim           22  value   -6.0532458284780414E-006
 DIRECTION dim           23  value   -2.3165223419874882E-006
 DIRECTION dim           24  value   -4.0663063669807379E-006
 DIRECTION dim           25  value   -4.4949445520587508E-006
 DIRECTION dim           26  value   -5.4980814622799721E-006
 DIRECTION dim           27  value   -5.8969429743317291E-006
 DIRECTION dim           28  value   -6.6760218197679823E-007
 DIRECTION dim           29  value    2.7689420030890760E-006
 DIRECTION dim           30  value   -7.4592795003088846E-006
 DIRECTION dim           31  value    1.2285801635186757E-005
 DIRECTION dim           32  value    1.3180827624394801E-005
 DIRECTION dim           33  value   -2.8882304710800127E-006
 DIRECTION dim           34  value   -7.1665292011087330E-006
 DIRECTION dim           35  value    7.6157997199187651E-006
 DIRECTION dim           36  value   -8.6319779486035531E-006
 DIRECTION dim           37  value    2.3099173869611663E-006
 DIRECTION dim           38  value    1.4212631330572907E-005
 DIRECTION dim           39  value   -1.0412570813872346E-005
 DIRECTION dim           40  value   -7.0938757525855514E-006
 DIRECTION dim           41  value   -4.7794861715607385E-008
 DIRECTION dim           42  value   -2.2547846426343705E-006
 DIRECTION dim           43  value   -3.0721885288377210E-006
 DIRECTION dim           44  value   -3.1246581121584536E-006
 DIRECTION dim           45  value   -3.0266617881339803E-006
 DIRECTION dim           46  value   -4.7802255079763364E-008
 DIRECTION dim           47  value    2.3529691350829645E-009
 DIRECTION dim           48  value   -2.7609542261445024E-011
 Perform trimming
 ALPHA BEFORE:   0.37424616744903300
 XC BEFORE:   0.16652253458220106
  ** Opt : line minimisation
left   ...       0.00000000    -475.56731281
centre ...       0.09356154    -475.56731303
right  ...       0.18712308    -475.56731316

[...]

 ALPHA AFTER:   0.29674749546669854
 XC AFTER:   0.16651388707120646
 SANITY CHECK:   0.29674749546642637
 DIRECTION dim            1  value   -1.6664085347999201E-005
 DIRECTION dim            2  value    2.0270553517062579E-005
 DIRECTION dim            3  value    8.4126668306732210E-006
 DIRECTION dim            4  value    2.6104524970573503E-006
 DIRECTION dim            5  value    4.1345602236817772E-005
 DIRECTION dim            6  value    6.1850639019758308E-006
 DIRECTION dim            7  value   -8.4375939288923826E-006
 DIRECTION dim            8  value    2.2999584642925246E-005
 DIRECTION dim            9  value    1.6694962209569681E-005
 DIRECTION dim           10  value   -7.1062268703192324E-006
 DIRECTION dim           11  value    2.6915784276937040E-005
 DIRECTION dim           12  value    9.9041946392574486E-006
 DIRECTION dim           13  value    1.7537029851407098E-005
 DIRECTION dim           14  value    1.0542039134775358E-005
 DIRECTION dim           15  value    6.4548713546205608E-007
 DIRECTION dim           16  value   -2.9291012281547837E-006
 DIRECTION dim           17  value   -4.5517262077493513E-006
 DIRECTION dim           18  value   -1.1327565393648156E-005
 DIRECTION dim           19  value   -1.2507383999212548E-006
 DIRECTION dim           20  value    4.7356610494791732E-006
 DIRECTION dim           21  value   -1.8360136283437634E-006
 DIRECTION dim           22  value   -5.9904757509923220E-006
 DIRECTION dim           23  value   -5.8066839998526783E-006
 DIRECTION dim           24  value   -1.5878732724386546E-005
 DIRECTION dim           25  value   -5.0123781184776716E-006
 DIRECTION dim           26  value   -9.0122802387077813E-006
 DIRECTION dim           27  value   -1.2105708060067404E-005
 DIRECTION dim           28  value   -1.8377535895903486E-005
 DIRECTION dim           29  value    1.1077860752714992E-005
 DIRECTION dim           30  value   -1.7144963721715641E-005
 DIRECTION dim           31  value    5.8764236042026203E-006
 DIRECTION dim           32  value    2.2091657162759996E-005
 DIRECTION dim           33  value   -1.2689241730951750E-005
 DIRECTION dim           34  value   -6.0467198832065366E-006
 DIRECTION dim           35  value    1.8448053209943853E-005
 DIRECTION dim           36  value   -1.2577698671079289E-005
 DIRECTION dim           37  value    3.1893688385615974E-006
 DIRECTION dim           38  value    2.5391992480571981E-005
 DIRECTION dim           39  value   -1.4524161059781070E-005
 DIRECTION dim           40  value    3.4169325288294321E-006
 DIRECTION dim           41  value    2.5993546322992765E-005
 DIRECTION dim           42  value   -1.3644587323739339E-005
 DIRECTION dim           43  value    2.3103805096732979E-007
 DIRECTION dim           44  value    2.2244858783699745E-007
 DIRECTION dim           45  value    2.3329331602622547E-007
 DIRECTION dim           46  value   -1.0977660893896645E-008
 DIRECTION dim           47  value   -5.8168529790119612E-010
 DIRECTION dim           48  value    3.8512059033761256E-009
 ALPHA BEFORE:   0.29674749546669854
 XC BEFORE:   0.16651388707120646
  ** Opt : line minimisation
left   ...       0.00000000    -475.56731441
centre ...       0.07418687    -475.56731444
right  ...       0.14837375    -475.56731447

left   ...       0.00000000    -475.56731441
centre ...       0.07418687    -475.56731444
right  ...       0.14837375    -475.56731447
new    ...       0.25493094    -475.56731448

__s__    ...       0.10655719

 ALPHA AFTER:   0.25493094039350017
 XC AFTER:   0.16651595955990162
 SANITY CHECK:   0.25493094039568287
 DIRECTION dim            1  value    8.1296083242888350E-006
 DIRECTION dim            2  value    2.2598120862172461E-006
 DIRECTION dim            3  value    1.2599994494250791E-007
 DIRECTION dim            4  value   -5.3943117537073707E-006
 DIRECTION dim            5  value   -4.4884181529644231E-006
 DIRECTION dim            6  value   -2.8529288859008749E-006
 DIRECTION dim            7  value   -7.1959749885871903E-007
 DIRECTION dim            8  value    2.4909461177413813E-006
 DIRECTION dim            9  value    1.6772406559533760E-006
 DIRECTION dim           10  value    1.3204081654562119E-006
 DIRECTION dim           11  value    3.1723397953779594E-006
 DIRECTION dim           12  value    2.6856204752767509E-007
 DIRECTION dim           13  value   -8.7881372994232425E-006
 DIRECTION dim           14  value    1.3580387516868044E-006
 DIRECTION dim           15  value   -1.8658012553067826E-007
 DIRECTION dim           16  value   -3.4466340304312704E-006
 DIRECTION dim           17  value    1.3331729198650554E-006
 DIRECTION dim           18  value   -6.4484435487389206E-007
 DIRECTION dim           19  value    1.0258870618719396E-005
 DIRECTION dim           20  value    7.4036270770147100E-006
 DIRECTION dim           21  value    3.1001459726459642E-007
 DIRECTION dim           22  value   -2.8743952557884435E-006
 DIRECTION dim           23  value    1.3464081735720423E-006
 DIRECTION dim           24  value   -2.5201853808557340E-006
 DIRECTION dim           25  value   -2.4351841255251408E-006
 DIRECTION dim           26  value   -1.0108722118024549E-006
 DIRECTION dim           27  value   -8.2899465088906917E-007
 DIRECTION dim           28  value    8.5875299165807860E-006
 DIRECTION dim           29  value    1.7063662033756125E-006
 DIRECTION dim           30  value   -1.6037960338986108E-006
 DIRECTION dim           31  value   -2.8310443422951582E-006
 DIRECTION dim           32  value    1.6067868237933482E-006
 DIRECTION dim           33  value   -1.4347946322367002E-006
 DIRECTION dim           34  value    1.9054975396967838E-006
 DIRECTION dim           35  value    5.4709347433382920E-007
 DIRECTION dim           36  value   -1.0959067386959086E-007
 DIRECTION dim           37  value   -8.0116036060960987E-008
 DIRECTION dim           38  value    1.9089507603498076E-006
 DIRECTION dim           39  value   -4.0344950213418354E-007
 DIRECTION dim           40  value   -2.9550988063329801E-006
 DIRECTION dim           41  value    6.5941923112556626E-006
 DIRECTION dim           42  value   -1.6336294450047651E-006
 DIRECTION dim           43  value   -1.6654001281629639E-006
 DIRECTION dim           44  value   -1.6458920204235339E-006
 DIRECTION dim           45  value   -1.6836169058621619E-006
 DIRECTION dim           46  value    1.8036508934586481E-008
 DIRECTION dim           47  value   -1.0705867829206429E-009
 DIRECTION dim           48  value    1.1507535785367597E-009

  **** Optimisation achieved ****

  Final energy =    -475.56731448 eV
  Final Gnorm  =       0.00051149

  Components of energy :

  Interatomic potentials     =          65.00930956 eV
  Monopole - monopole (real) =        -237.15330180 eV
  Monopole - monopole (recip)=        -303.42332225 eV
  Monopole - monopole (total)=        -540.57662404 eV
  Total lattice energy       =        -475.56731448 eV
  Total lattice energy       =          -45884.9761 kJ/(mole unit cells)

  Final fractional coordinates of atoms :

   No.  Atomic        x           y          z          Radius
        Label       (Frac)      (Frac)     (Frac)       (Angs)
     1  Sr    c     0.999850    0.000360    0.999990    0.000000
     2  Ti    c     0.166516    0.500154    0.500055    0.000000
     3  O     c     0.999849    0.500162    0.500084    0.000000
     4  O     c     0.166515    0.000140    0.500045    0.000000
     5  O     c     0.166515    0.500135    0.000059    0.000000
     6  Sr    c     0.333183    0.000118    0.000081    0.000000
     7  Ti    c     0.499849    0.500110    0.500101    0.000000
     8  O     c     0.333184    0.500102    0.500078    0.000000
     9  O     c     0.499849    0.000110    0.500116    0.000000
    10  O     c     0.499849    0.500112    0.000102    0.000000
    11  Sr    c     0.666515    0.000115    0.000105    0.000000
    12  Ti    c     0.833183    0.500155    0.500081    0.000000
    13  O     c     0.666516    0.500129    0.500091    0.000000
    14  O     c     0.833182    0.000140    0.500085    0.000000
    15  O     c     0.833183    0.500119    0.000086    0.000000

  Final Cartesian lattice vectors (Angstroms) :

       11.869496   -0.000000    0.000000
       -0.000000    3.956498   -0.000000
        0.000000   -0.000000    3.956499

  Final cell parameters and derivatives :

       a           11.869496 Angstrom     dE/de1(xx)     0.001200 eV/strain
       b            3.956498 Angstrom     dE/de2(yy)     0.001182 eV/strain
       c            3.956499 Angstrom     dE/de3(zz)     0.001217 eV/strain
       alpha       90.000000 Degrees      dE/de4(yz)    -0.000017 eV/strain
       beta        90.000000 Degrees      dE/de5(xz)     0.000001 eV/strain
       gamma       90.000000 Degrees      dE/de6(xy)    -0.000001 eV/strain

  Primitive cell volume =           185.803661 Angs**3

  Density of cell =      4.919932 g/cm**3

  Non-primitive cell volume =           185.803661 Angs**3

  Final internal derivatives :

   No.  Atomic          a             b             c           Radius
        Label          (eV)          (eV)          (eV)        (eV/Angs)
      1 Sr    c       0.000000      0.000000      0.000000      0.000000
      2 Ti    c       0.009859     -0.002225     -0.000132      0.000000
      3 O     c      -0.005593      0.004096      0.002734      0.000000
      4 O     c      -0.007047     -0.002455     -0.001608      0.000000
      5 O     c      -0.008059     -0.003141     -0.000257      0.000000
      6 Sr    c      -0.001178     -0.001368      0.000188      0.000000
      7 Ti    c      -0.008214     -0.001358      0.000701      0.000000
      8 O     c       0.008957     -0.007046     -0.000275      0.000000
      9 O     c       0.002985     -0.001364      0.002418      0.000000
     10 O     c       0.002774      0.000910      0.000862      0.000000
     11 Sr    c      -0.003790     -0.001699      0.001589      0.000000
     12 Ti    c       0.000744     -0.001641      0.001384      0.000000
     13 O     c       0.001092     -0.000590      0.000173      0.000000
     14 O     c       0.000766     -0.001929      0.000483      0.000000
     15 O     c       0.002214     -0.006349      0.001556      0.000000
  Maximum abs         0.009859      0.007046      0.002734      0.000000

  Time to end of optimisation =       0.1011 seconds

 Exiting ------OPTIONS------

  Timing analysis for GULP :

  Task / Subroutine                                          Time (Seconds)
  Calculation of reciprocal space energy and derivatives          0.0111
  Calculation of real space energy and derivatives                0.0836

  Job Finished at 13:26.38 21st February   2020