  Job Started  at 13:26.37 21st February   2020

  Number of CPUs =     1

  Total number of configurations input =      1

*  Input for Configuration =   1                                               *

  Formula = Sr3Ti3O9

  Number of irreducible atoms/shells =      15

  Total number atoms/shells =      15

  Dimensionality = 3               :  Bulk

  Cartesian lattice vectors (Angstroms) :

       12.000000    0.000000    0.000000
        0.000000    4.000000    0.000000
        0.000000    0.000000    4.000000

  Cell parameters (Angstroms/Degrees):

  a =      12.0000    alpha =  90.0000
  b =       4.0000    beta  =  90.0000
  c =       4.0000    gamma =  90.0000

  Initial cell volume =         192.000000 Angs**3

  Temperature of configuration =  0.000     K

  Pressure of configuration =         0.000 GPa

  Fractional coordinates of asymmetric unit :

   No.  Atomic       x           y          z         Charge      Occupancy
        Label      (Frac)      (Frac)     (Frac)        (e)         (Frac)
      1 Sr    c    0.999960    0.999870    0.000550     2.00000    1.000000
      2 Ti    c    0.166670 *  0.500120 *  0.500000 *   4.00000    1.000000
      3 O     c    0.999860 *  0.499900 *  0.500580 *  -2.00000    1.000000
      4 O     c    0.166680 *  0.000170 *  0.499980 *  -2.00000    1.000000
      5 O     c    0.166710 *  0.500200 *  0.999660 *  -2.00000    1.000000
      6 Sr    c    0.333470 *  0.000350 *  0.000010 *   2.00000    1.000000
      7 Ti    c    0.500270 *  0.499340 *  0.499380 *   4.00000    1.000000
      8 O     c    0.333310 *  0.499790 *  0.499620 *  -2.00000    1.000000
      9 O     c    0.499980 *  0.999440 *  0.500200 *  -2.00000    1.000000
     10 O     c    0.500030 *  0.500400 *  0.000150 *  -2.00000    1.000000
     11 Sr    c    0.666540 *  0.999940 *  0.999970 *   2.00000    1.000000
     12 Ti    c    0.833350 *  0.499710 *  0.499670 *   4.00000    1.000000
     13 O     c    0.666530 *  0.499700 *  0.500090 *  -2.00000    1.000000
     14 O     c    0.833150 *  0.000100 *  0.500050 *  -2.00000    1.000000
     15 O     c    0.833380 *  0.500160 *  0.000120 *  -2.00000    1.000000

*  General input information                                                   *

  Species output for all configurations :

  Species    Type    Atomic    Atomic    Charge       Radii (Angs)     Library
                     Number     Mass       (e)     Cova   Ionic  VDW   Symbol
    Sr       Core       38      87.62   2.000000   1.120  0.000  1.670
    Ti       Core       22      47.88   4.000000   1.470  0.000  2.190
    O        Core        8      16.00  -2.000000   0.730  0.000  1.360

  Lattice summation method               =    Ewald          (3-D)
                                         =    Parry          (2-D)
                                         =    Saunders et al (1-D)
  Accuracy factor for lattice sums       =   12.000

  Time limit = Infinity

  Maximum range for interatomic potentials =    100000.000000 Angstroms

  General interatomic potentials :

Atom  Types   Potential      Parameter       Value         Units   Cutoffs(Ang)
  1     2                                                            Min /  Max
O    c Sr   c Buckingham    Buckingham A     1952.3900    eV        0.000 10.000
                            Buckingham rho  0.33685000    Ang
                            Buckingham C     19.220000    eV*Ang^6
O    c Ti   c Buckingham    Buckingham A     4590.7279    eV        0.000 10.000
                            Buckingham rho  0.26100000    Ang
                            Buckingham C     0.0000000    eV*Ang^6
O    c O    c Buckingham    Buckingham A     1388.7700    eV        0.000 10.000
                            Buckingham rho  0.36262000    Ang
                            Buckingham C     175.00000    eV*Ang^6
 Calling ------OPTIONS------

*  Output for configuration   1                                                *

  Components of energy :

  Interatomic potentials     =          59.32156790 eV
  Monopole - monopole (real) =        -234.57439053 eV
  Monopole - monopole (recip)=        -300.12335562 eV
  Monopole - monopole (total)=        -534.69774615 eV
  Total lattice energy       =        -475.37617825 eV
  Total lattice energy       =          -45866.5344 kJ/(mole unit cells)

  Number of variables =       48

  Maximum number of calculations  =          1000
  Maximum Hessian update interval =            10
  Maximum step size               =   1.000000000
  Maximum parameter tolerance     =   0.000010000
  Maximum function  tolerance     =   0.000010000
  Maximum gradient  tolerance     =   0.001000000
  Maximum gradient  component     =   0.010000000

  Cell parameters to be optimised using strains

  Conjugate gradient optimiser to be used

  Lower half triangular hessian to be used

  Start of bulk optimisation :

 ALPHA BEFORE:    1.0000000000000000
 XC BEFORE:   0.16666999999995369
  ** Opt : line minimisation
left   ...       0.00000000    -475.37617825
centre ...       0.25000000    -475.46049989
right  ...       0.50000000    -475.51142990

left   ...       0.00000000    -475.37617825
centre ...       0.25000000    -475.46049989
right  ...       0.50000000    -475.51142990
new    ...       0.75630828    -475.52804166

__s__    ...       0.25630828

 ALPHA AFTER:   0.75630828475232981
 XC AFTER:   0.16734824287970815
 SANITY CHECK:   0.75630828475231804
 DIRECTION dim            1  value    8.9678097335212418E-004
 DIRECTION dim            2  value   -1.9631933566550639E-005
 DIRECTION dim            3  value    4.4632341123896046E-005
 DIRECTION dim            4  value    2.5669570421654693E-004
 DIRECTION dim            5  value    2.4528983753954359E-005
 DIRECTION dim            6  value   -2.1468565893177885E-004
 DIRECTION dim            7  value   -5.8860503624745433E-004
 DIRECTION dim            8  value   -5.3037826352994157E-005
 DIRECTION dim            9  value   -7.6573945907180356E-005
 DIRECTION dim           10  value   -6.1911043734131179E-004
 DIRECTION dim           11  value    4.9125870974388455E-006
 DIRECTION dim           12  value    1.8183151209948752E-004
 DIRECTION dim           13  value   -1.9238397328060031E-004
 DIRECTION dim           14  value   -8.1431901536455041E-005
 DIRECTION dim           15  value   -4.0425813582024830E-005
 DIRECTION dim           16  value   -2.3291929310889966E-003
 DIRECTION dim           17  value    3.4506190915601200E-004
 DIRECTION dim           18  value    3.2074368820717654E-004
 DIRECTION dim           19  value    3.5111605195874672E-004
 DIRECTION dim           20  value   -5.9522121275175805E-005
 DIRECTION dim           21  value    1.6725424907282682E-005
 DIRECTION dim           22  value    8.1439682223237084E-004
 DIRECTION dim           23  value    2.5958111369755999E-004
 DIRECTION dim           24  value   -1.2153902073060509E-004
 DIRECTION dim           25  value    7.4405416932482192E-004
 DIRECTION dim           26  value   -3.0949786669361612E-004
 DIRECTION dim           27  value   -7.7379787420884077E-005
 DIRECTION dim           28  value    1.9018527590412631E-004
 DIRECTION dim           29  value   -5.9458241613868966E-005
 DIRECTION dim           30  value   -5.4200359948143316E-005
 DIRECTION dim           31  value   -1.1465698567004157E-004
 DIRECTION dim           32  value    1.3489626146749890E-004
 DIRECTION dim           33  value    2.7325042727705586E-004
 DIRECTION dim           34  value    5.5295355395262511E-004
 DIRECTION dim           35  value   -7.2391254338170823E-005
 DIRECTION dim           36  value   -9.5031104046485666E-005
 DIRECTION dim           37  value    9.9583363098301926E-005
 DIRECTION dim           38  value   -6.2323892858654029E-005
 DIRECTION dim           39  value   -8.3598025995352973E-005
 DIRECTION dim           40  value   -3.2155726721774087E-004
 DIRECTION dim           41  value   -5.9527843308551674E-005
 DIRECTION dim           42  value    2.2448245876471387E-005
 DIRECTION dim           43  value   -1.1449913523411176E-002
 DIRECTION dim           44  value   -1.1452962036541604E-002
 DIRECTION dim           45  value   -1.1450831799189499E-002
 DIRECTION dim           46  value   -9.5193325056853174E-009
 DIRECTION dim           47  value    4.1722032401602439E-008
 DIRECTION dim           48  value    5.9186274454277460E-008
 Perform trimming
 ALPHA BEFORE:   0.75630828475232981
 XC BEFORE:   0.16734824287970815
  ** Opt : line minimisation
left   ...       0.00000000    -475.52804166
centre ...       0.18907707    -475.56350110
right  ...       0.37815414    -475.47732340

[...]

 ALPHA AFTER:   0.15017166294178641
 XC AFTER:   0.16645020357875662
 SANITY CHECK:   0.15017166294178569
 DIRECTION dim            1  value   -5.9800849465165571E-003
 DIRECTION dim            2  value   -3.6053886627783286E-005
 DIRECTION dim            3  value    5.4179905842491719E-005
 DIRECTION dim            4  value    1.3249019478665195E-003
 DIRECTION dim            5  value    4.2053661401050321E-005
 DIRECTION dim            6  value   -3.3847321460366876E-004
 DIRECTION dim            7  value    2.9061495826722258E-003
 DIRECTION dim            8  value   -8.9184184574814205E-005
 DIRECTION dim            9  value   -1.0833606170951235E-004
 DIRECTION dim           10  value    2.8568889173547223E-003
 DIRECTION dim           11  value    5.1746402706531794E-006
 DIRECTION dim           12  value    2.8529131138598971E-004
 DIRECTION dim           13  value   -8.3548955316976723E-005
 DIRECTION dim           14  value   -1.3291469713032727E-004
 DIRECTION dim           15  value   -6.1312012786579357E-005
 DIRECTION dim           16  value    7.7996159517966287E-003
 DIRECTION dim           17  value    5.2495024037921083E-004
 DIRECTION dim           18  value    5.0372459707511167E-004
 DIRECTION dim           19  value   -5.2972638056732234E-004
 DIRECTION dim           20  value   -7.5230307677912983E-005
 DIRECTION dim           21  value    4.8334378593013915E-005
 DIRECTION dim           22  value   -3.7815984361745242E-003
 DIRECTION dim           23  value    3.9467539346839576E-004
 DIRECTION dim           24  value   -1.8523670747417392E-004
 DIRECTION dim           25  value   -3.8722929238308341E-003
 DIRECTION dim           26  value   -4.7509204738166910E-004
 DIRECTION dim           27  value   -1.4327697360457675E-004
 DIRECTION dim           28  value    1.0038777388629032E-003
 DIRECTION dim           29  value   -8.8895213916236458E-005
 DIRECTION dim           30  value   -7.8958065832762837E-005
 DIRECTION dim           31  value   -1.4917435524506378E-003
 DIRECTION dim           32  value    2.0978222651229871E-004
 DIRECTION dim           33  value    4.2143755132463372E-004
 DIRECTION dim           34  value   -8.6037975823093841E-004
 DIRECTION dim           35  value   -9.1379151620293503E-005
 DIRECTION dim           36  value   -1.3678055354692851E-004
 DIRECTION dim           37  value    1.0618773891401211E-003
 DIRECTION dim           38  value   -1.1141691959811316E-004
 DIRECTION dim           39  value   -1.1407838075341179E-004
 DIRECTION dim           40  value    6.0356783172330216E-004
 DIRECTION dim           41  value   -9.3214204525004726E-005
 DIRECTION dim           42  value    1.5446733597707182E-005
 DIRECTION dim           43  value   -1.5863023931165079E-002
 DIRECTION dim           44  value   -1.5866050426865057E-002
 DIRECTION dim           45  value   -1.5863114347165370E-002
 DIRECTION dim           46  value   -1.2187273272590619E-008
 DIRECTION dim           47  value   -2.5539919887132725E-007
 DIRECTION dim           48  value   -3.7523057160277036E-007
 ALPHA BEFORE:   0.15017166294178641
 XC BEFORE:   0.16645020357875662
  ** Opt : line minimisation
left   ...       0.00000000    -475.56605253
centre ...       0.03754292    -475.56647153
right  ...       0.07508583    -475.56678951

[...]

 ALPHA AFTER:   0.33115179614073664
 XC AFTER:   0.16662981054652554
 SANITY CHECK:   0.33115179614287499
 DIRECTION dim            1  value    8.0449424860796618E-006
 DIRECTION dim            2  value    1.4996614783774504E-006
 DIRECTION dim            3  value    2.7631613291028127E-005
 DIRECTION dim            4  value   -5.8285095302247507E-006
 DIRECTION dim            5  value   -6.9183247092841407E-006
 DIRECTION dim            6  value    2.9600344958893574E-005
 DIRECTION dim            7  value    3.6079359780830453E-006
 DIRECTION dim            8  value    1.2545182058123856E-006
 DIRECTION dim            9  value    1.8584753010787280E-005
 DIRECTION dim           10  value    3.2951494797933324E-006
 DIRECTION dim           11  value   -3.8867356474573773E-006
 DIRECTION dim           12  value    2.8276668971376695E-005
 DIRECTION dim           13  value   -1.0746303209991144E-005
 DIRECTION dim           14  value   -4.7444251178634614E-006
 DIRECTION dim           15  value    2.6865507516727131E-005
 DIRECTION dim           16  value    4.5412062446386231E-006
 DIRECTION dim           17  value   -2.4680475845311944E-008
 DIRECTION dim           18  value    3.3090485633298715E-005
 DIRECTION dim           19  value   -1.2550017089370397E-005
 DIRECTION dim           20  value   -1.2915373997157351E-005
 DIRECTION dim           21  value    1.3852757562322940E-005
 DIRECTION dim           22  value    4.7268457172738820E-007
 DIRECTION dim           23  value    4.3361968242178344E-008
 DIRECTION dim           24  value    3.0821119845510091E-005
 DIRECTION dim           25  value    1.6632162701945740E-007
 DIRECTION dim           26  value   -1.4761973336650381E-006
 DIRECTION dim           27  value    3.4735293369069521E-005
 DIRECTION dim           28  value    1.3983353953421844E-005
 DIRECTION dim           29  value   -4.0050376935634014E-006
 DIRECTION dim           30  value    2.6597395411833877E-005
 DIRECTION dim           31  value   -1.1691426604082204E-005
 DIRECTION dim           32  value    1.4565828557185788E-006
 DIRECTION dim           33  value    2.6808034295995529E-005
 DIRECTION dim           34  value    5.9666059313803188E-006
 DIRECTION dim           35  value   -1.4335506783850263E-005
 DIRECTION dim           36  value    2.1760587889156710E-005
 DIRECTION dim           37  value   -1.0594760965381661E-007
 DIRECTION dim           38  value    2.0858308447893827E-006
 DIRECTION dim           39  value    1.4637911003707803E-005
 DIRECTION dim           40  value   -3.4913914610258849E-007
 DIRECTION dim           41  value   -2.0784220147879176E-006
 DIRECTION dim           42  value    2.9448735200207998E-005
 DIRECTION dim           43  value    5.4659217087659931E-006
 DIRECTION dim           44  value    5.3841489441425628E-006
 DIRECTION dim           45  value    5.4300994162005345E-006
 DIRECTION dim           46  value    4.3399229687699868E-009
 DIRECTION dim           47  value    1.7243643505236175E-009
 DIRECTION dim           48  value    1.1839703482318914E-010
 Perform trimming
 ALPHA BEFORE:   0.33115179614073664
 XC BEFORE:   0.16662981054652554
  ** Opt : line minimisation
left   ...       0.00000000    -475.56731129
centre ...       0.08278795    -475.56731144
right  ...       0.16557590    -475.56731150

[...]

 ALPHA AFTER:   0.11020401493997642
 XC AFTER:   0.16662429137069706
 SANITY CHECK:   0.11020401494084063
 DIRECTION dim            1  value   -3.6430019655932677E-006
 DIRECTION dim            2  value   -2.0969677849349224E-006
 DIRECTION dim            3  value    8.6974988960329340E-008
 DIRECTION dim            4  value   -1.0531324031895699E-005
 DIRECTION dim            5  value    3.0134129674848459E-007
 DIRECTION dim            6  value   -1.9084472574208509E-006
 DIRECTION dim            7  value    1.0423378042889422E-005
 DIRECTION dim            8  value   -2.1037781779161619E-006
 DIRECTION dim            9  value    4.2505005384693641E-006
 DIRECTION dim           10  value    1.0750446498187419E-005
 DIRECTION dim           11  value    3.0280475611781930E-007
 DIRECTION dim           12  value    3.6776489221622503E-007
 DIRECTION dim           13  value    8.5727475359786495E-008
 DIRECTION dim           14  value    7.2675118373201828E-008
 DIRECTION dim           15  value    3.1794049872626873E-006
 DIRECTION dim           16  value    8.0951339153321836E-006
 DIRECTION dim           17  value   -1.8719361252716660E-006
 DIRECTION dim           18  value    1.3701597389084228E-006
 DIRECTION dim           19  value   -1.7156238369968674E-005
 DIRECTION dim           20  value    3.5996210359922190E-006
 DIRECTION dim           21  value    9.6812139849767099E-006
 DIRECTION dim           22  value    5.5864887573147807E-006
 DIRECTION dim           23  value   -1.8134265167160291E-006
 DIRECTION dim           24  value    2.3301978552437275E-006
 DIRECTION dim           25  value    5.9071553999658425E-006
 DIRECTION dim           26  value   -1.7048479510846933E-006
 DIRECTION dim           27  value    1.1913581038995597E-006
 DIRECTION dim           28  value   -5.0900852411063872E-006
 DIRECTION dim           29  value    2.8752560431513118E-008
 DIRECTION dim           30  value    3.2336859213174613E-006
 DIRECTION dim           31  value    3.2434214743732895E-005
 DIRECTION dim           32  value   -1.9262580840350211E-006
 DIRECTION dim           33  value   -1.0384991855042120E-007
 DIRECTION dim           34  value   -2.0817785263811503E-005
 DIRECTION dim           35  value    4.6890915987665775E-006
 DIRECTION dim           36  value    4.7532169948801554E-006
 DIRECTION dim           37  value   -6.9612882711265714E-006
 DIRECTION dim           38  value   -2.0711425960254443E-006
 DIRECTION dim           39  value    6.3917554795578867E-006
 DIRECTION dim           40  value   -6.6934227144886518E-006
 DIRECTION dim           41  value   -1.9040699669966838E-007
 DIRECTION dim           42  value   -1.7131634661746151E-007
 DIRECTION dim           43  value   -3.2596815151285651E-006
 DIRECTION dim           44  value   -3.1637062666686202E-006
 DIRECTION dim           45  value   -3.2205924551315103E-006
 DIRECTION dim           46  value   -1.0303741670521965E-009
 DIRECTION dim           47  value   -1.0297881995395398E-009
 DIRECTION dim           48  value   -2.7559095024429732E-010
 ALPHA BEFORE:   0.11020401493997642
 XC BEFORE:   0.16662429137069706
  ** Opt : line minimisation
left   ...       0.00000000    -475.56731207
centre ...       0.02755100    -475.56731210
right  ...       0.05510201    -475.56731213

left   ...       0.00000000    -475.56731207
centre ...       0.02755100    -475.56731210
right  ...       0.05510201    -475.56731213
new    ...       0.14136455    -475.56731216

__s__    ...       0.08626254

 ALPHA AFTER:   0.14136455119094357
 XC AFTER:   0.16662673117409055
 SANITY CHECK:   0.14136455119008753
 DIRECTION dim            1  value    1.7258947684861154E-005
 DIRECTION dim            2  value   -2.9207612957401077E-006
 DIRECTION dim            3  value    3.0165273274608114E-007
 DIRECTION dim            4  value   -7.7630731992298129E-006
 DIRECTION dim            5  value    3.4513759993998476E-007
 DIRECTION dim            6  value   -2.7922695145969063E-006
 DIRECTION dim            7  value   -4.4008835160744631E-007
 DIRECTION dim            8  value   -2.9315352580043427E-006
 DIRECTION dim            9  value    6.0679359452954546E-006
 DIRECTION dim           10  value   -2.2443958183009507E-008
 DIRECTION dim           11  value    3.3013159594197811E-007
 DIRECTION dim           12  value    7.0278875826024616E-007
 DIRECTION dim           13  value    4.5089362353924147E-006
 DIRECTION dim           14  value    6.7452884741395026E-008
 DIRECTION dim           15  value    4.6094185503306580E-006
 DIRECTION dim           16  value    1.2033245906143529E-005
 DIRECTION dim           17  value   -2.5950264472089999E-006
 DIRECTION dim           18  value    2.1665776112126806E-006
 DIRECTION dim           19  value   -1.7939121324981304E-005
 DIRECTION dim           20  value    5.0894497771906412E-006
 DIRECTION dim           21  value    1.3887684987217214E-005
 DIRECTION dim           22  value    1.7191125370299492E-006
 DIRECTION dim           23  value   -2.5148557063082597E-006
 DIRECTION dim           24  value    3.3186589521214779E-006
 DIRECTION dim           25  value    2.1284961659906364E-006
 DIRECTION dim           26  value   -2.5619380982890414E-006
 DIRECTION dim           27  value    1.9153967784427804E-006
 DIRECTION dim           28  value   -9.3965918894311216E-006
 DIRECTION dim           29  value    4.4589006257762335E-009
 DIRECTION dim           30  value    4.6878959863026509E-006
 DIRECTION dim           31  value    3.4483584798946164E-006
 DIRECTION dim           32  value   -2.6790482561854416E-006
 DIRECTION dim           33  value    2.0306046423364720E-008
 DIRECTION dim           34  value   -1.4046601736366275E-005
 DIRECTION dim           35  value    6.6574905949700609E-006
 DIRECTION dim           36  value    6.7963231415256674E-006
 DIRECTION dim           37  value    5.4716772784512962E-006
 DIRECTION dim           38  value   -2.8823293908000781E-006
 DIRECTION dim           39  value    9.1493752020946810E-006
 DIRECTION dim           40  value    5.8149902221923482E-006
 DIRECTION dim           41  value   -3.7918687825412651E-007
 DIRECTION dim           42  value   -6.6047614520077528E-008
 DIRECTION dim           43  value   -4.3856504134690375E-006
 DIRECTION dim           44  value   -4.2468685658716860E-006
 DIRECTION dim           45  value   -4.3283613693263523E-006
 DIRECTION dim           46  value   -1.4586532162839664E-009
 DIRECTION dim           47  value   -1.7752731071798144E-009
 DIRECTION dim           48  value   -3.0048276545193467E-010

  **** Optimisation achieved ****

  Final energy =    -475.56731216 eV
  Final Gnorm  =       0.00041271

  Components of energy :

  Interatomic potentials     =          65.00883304 eV
  Monopole - monopole (real) =        -237.15309216 eV
  Monopole - monopole (recip)=        -303.42305304 eV
  Monopole - monopole (total)=        -540.57614520 eV
  Total lattice energy       =        -475.56731216 eV
  Total lattice energy       =          -45884.9759 kJ/(mole unit cells)

  Final fractional coordinates of atoms :

   No.  Atomic        x           y          z          Radius
        Label       (Frac)      (Frac)     (Frac)       (Angs)
     1  Sr    c     0.999960    0.999870    0.000550    0.000000
     2  Ti    c     0.166627    0.499907    0.500275    0.000000
     3  O     c     0.999959    0.499908    0.500270    0.000000
     4  O     c     0.166626    0.999909    0.500256    0.000000
     5  O     c     0.166626    0.499910    0.000257    0.000000
     6  Sr    c     0.333293    0.999914    0.000200    0.000000
     7  Ti    c     0.499961    0.499917    0.500181    0.000000
     8  O     c     0.333291    0.499899    0.500192    0.000000
     9  O     c     0.499960    0.999917    0.500167    0.000000
    10  O     c     0.499960    0.499930    0.000180    0.000000
    11  Sr    c     0.666628    0.999914    0.000199    0.000000
    12  Ti    c     0.833294    0.499906    0.500276    0.000000
    13  O     c     0.666626    0.499895    0.500211    0.000000
    14  O     c     0.833294    0.999909    0.500248    0.000000
    15  O     c     0.833294    0.499912    0.000259    0.000000

  Final Cartesian lattice vectors (Angstroms) :

       11.869508    0.000000    0.000000
        0.000000    3.956501   -0.000000
        0.000000   -0.000000    3.956502

  Final cell parameters and derivatives :

       a           11.869508 Angstrom     dE/de1(xx)     0.002198 eV/strain
       b            3.956501 Angstrom     dE/de2(yy)     0.002110 eV/strain
       c            3.956502 Angstrom     dE/de3(zz)     0.002161 eV/strain
       alpha       90.000000 Degrees      dE/de4(yz)     0.000001 eV/strain
       beta        90.000000 Degrees      dE/de5(xz)     0.000001 eV/strain
       gamma       90.000000 Degrees      dE/de6(xy)     0.000000 eV/strain

  Primitive cell volume =           185.804156 Angs**3

  Density of cell =      4.919918 g/cm**3

  Non-primitive cell volume =           185.804156 Angs**3

  Final internal derivatives :

   No.  Atomic          a             b             c           Radius
        Label          (eV)          (eV)          (eV)        (eV/Angs)
      1 Sr    c       0.000000      0.000000      0.000000      0.000000
      2 Ti    c       0.004633      0.001680     -0.000568      0.000000
      3 O     c      -0.003222     -0.000037      0.001888      0.000000
      4 O     c      -0.000394      0.001689     -0.003814      0.000000
      5 O     c      -0.000559      0.000010     -0.000822      0.000000
      6 Sr    c      -0.000112      0.000035     -0.003048      0.000000
      7 Ti    c       0.003813      0.001466     -0.001810      0.000000
      8 O     c      -0.008928     -0.003089     -0.008861      0.000000
      9 O     c       0.001864      0.001423     -0.002074      0.000000
     10 O     c       0.001702      0.001879     -0.001662      0.000000
     11 Sr    c       0.001138      0.000075     -0.003100      0.000000
     12 Ti    c       0.000409      0.001532     -0.000372      0.000000
     13 O     c      -0.003527     -0.004100     -0.004294      0.000000
     14 O     c       0.001992      0.001652     -0.005799      0.000000
     15 O     c       0.001854      0.000466     -0.000341      0.000000
  Maximum abs         0.008928      0.004100      0.008861      0.000000

  Time to end of optimisation =       0.1929 seconds

 Exiting ------OPTIONS------

  Timing analysis for GULP :

  Task / Subroutine                                          Time (Seconds)
  Calculation of reciprocal space energy and derivatives          0.0211
  Calculation of real space energy and derivatives                0.1591
  Global summation overhead                                       0.0001

  Job Finished at 13:26.38 21st February   2020