  Job Started  at 11:51.17  4th February   2020

  Number of CPUs =     1

  Total number of configurations input =      1

*  Input for Configuration =   1                                               *

  Formula = Sr3Ti3O9

  Number of irreducible atoms/shells =      15

  Total number atoms/shells =      15

  Dimensionality = 3               :  Bulk

  Cartesian lattice vectors (Angstroms) :

       12.000000    0.000000    0.000000
        0.000000    4.000000    0.000000
        0.000000    0.000000    4.000000

  Cell parameters (Angstroms/Degrees):

  a =      12.0000    alpha =  90.0000
  b =       4.0000    beta  =  90.0000
  c =       4.0000    gamma =  90.0000

  Initial cell volume =         192.000000 Angs**3

  Temperature of configuration =  0.000     K

  Pressure of configuration =         0.000 GPa

  Fractional coordinates of asymmetric unit :

   No.  Atomic       x           y          z         Charge      Occupancy
        Label      (Frac)      (Frac)     (Frac)        (e)         (Frac)
      1 Sr    c    0.999850    0.000360    0.999990     2.00000    1.000000
      2 Ti    c    0.166710 *  0.500030 *  0.500050 *   4.00000    1.000000
      3 O     c    0.000050 *  0.500680 *  0.500190 *  -2.00000    1.000000
      4 O     c    0.166570 *  0.999870 *  0.499700 *  -2.00000    1.000000
      5 O     c    0.166600 *  0.499850 *  0.999910 *  -2.00000    1.000000
      6 Sr    c    0.333370 *  0.000290 *  0.999980 *   2.00000    1.000000
      7 Ti    c    0.500060 *  0.500190 *  0.500580 *   4.00000    1.000000
      8 O     c    0.333440 *  0.499320 *  0.500160 *  -2.00000    1.000000
      9 O     c    0.500070 *  0.000580 *  0.500650 *  -2.00000    1.000000
     10 O     c    0.500040 *  0.499980 *  0.999500 *  -2.00000    1.000000
     11 Sr    c    0.666980 *  0.000650 *  0.999700 *   2.00000    1.000000
     12 Ti    c    0.833180 *  0.500010 *  0.500730 *   4.00000    1.000000
     13 O     c    0.666770 *  0.499940 *  0.500100 *  -2.00000    1.000000
     14 O     c    0.833490 *  0.000170 *  0.499850 *  -2.00000    1.000000
     15 O     c    0.833340 *  0.499170 *  0.000420 *  -2.00000    1.000000

*  General input information                                                   *

  Species output for all configurations :

  Species    Type    Atomic    Atomic    Charge       Radii (Angs)     Library
                     Number     Mass       (e)     Cova   Ionic  VDW   Symbol
    Sr       Core       38      87.62   2.000000   1.120  0.000  1.670
    Ti       Core       22      47.88   4.000000   1.470  0.000  2.190
    O        Core        8      16.00  -2.000000   0.730  0.000  1.360

  Lattice summation method               =    Ewald          (3-D)
                                         =    Parry          (2-D)
                                         =    Saunders et al (1-D)
  Accuracy factor for lattice sums       =   12.000

  Time limit = Infinity

  Maximum range for interatomic potentials =    100000.000000 Angstroms

  General interatomic potentials :

Atom  Types   Potential      Parameter       Value         Units   Cutoffs(Ang)
  1     2                                                            Min /  Max
O    c Sr   c Buckingham    Buckingham A     1952.3900    eV        0.000 10.000
                            Buckingham rho  0.33685000    Ang
                            Buckingham C     19.220000    eV*Ang^6
O    c Ti   c Buckingham    Buckingham A     4590.7279    eV        0.000 10.000
                            Buckingham rho  0.26100000    Ang
                            Buckingham C     0.0000000    eV*Ang^6
O    c O    c Buckingham    Buckingham A     1388.7700    eV        0.000 10.000
                            Buckingham rho  0.36262000    Ang
                            Buckingham C     175.00000    eV*Ang^6
 Calling ------OPTIONS------

*  Output for configuration   1                                                *

  Components of energy :

  Interatomic potentials     =          59.32167851 eV
  Monopole - monopole (real) =        -234.57426617 eV
  Monopole - monopole (recip)=        -300.12329799 eV
  Monopole - monopole (total)=        -534.69756416 eV
  Total lattice energy       =        -475.37588565 eV
  Total lattice energy       =          -45866.5062 kJ/(mole unit cells)

  Number of variables =       48

  Maximum number of calculations  =          1000
  Maximum Hessian update interval =            10
  Maximum step size               =   1.000000000
  Maximum parameter tolerance     =   0.000010000
  Maximum function  tolerance     =   0.000010000
  Maximum gradient  tolerance     =   0.001000000
  Maximum gradient  component     =   0.010000000

  Cell parameters to be optimised using strains

  Conjugate gradient optimiser to be used

  Lower half triangular hessian to be used

  Start of bulk optimisation :

 Line minimisation2
 ALPHA BEFORE:    1.0000000000000000
  ** Opt : line minimisation
left   ...       0.00000000    -475.37588565
centre ...       0.25000000    -475.45937155
right  ...       0.50000000    -475.50636435

left   ...       0.00000000    -475.37588565
centre ...       0.25000000    -475.45937155
right  ...       0.50000000    -475.50636435
new    ...       0.69692938    -475.51707715

__s__    ...       0.19692938

 ALPHA AFTER:   0.69692938194025855
 Perform trimming
 Line minimisation2
 ALPHA BEFORE:   0.69692938194025855
  ** Opt : line minimisation
left   ...       0.00000000    -475.51707715
centre ...       0.17423235    -475.56576597
right  ...       0.34846469    -475.52905485

[...]

 ALPHA AFTER:   0.18700951380719669
 Line minimisation2
 ALPHA BEFORE:   0.18700951380719669
  ** Opt : line minimisation
left   ...       0.00000000    -475.56599740
centre ...       0.04675238    -475.56652541
right  ...       0.09350476    -475.56686297

[...]

 ALPHA AFTER:   0.37424616744903300
 Perform trimming
 Line minimisation2
 ALPHA BEFORE:   0.37424616744903300
  ** Opt : line minimisation
left   ...       0.00000000    -475.56731281
centre ...       0.09356154    -475.56731303
right  ...       0.18712308    -475.56731316

[...]

 ALPHA AFTER:   0.29674749546669854
 Line minimisation2
 ALPHA BEFORE:   0.29674749546669854
  ** Opt : line minimisation
left   ...       0.00000000    -475.56731441
centre ...       0.07418687    -475.56731444
right  ...       0.14837375    -475.56731447

left   ...       0.00000000    -475.56731441
centre ...       0.07418687    -475.56731444
right  ...       0.14837375    -475.56731447
new    ...       0.25493094    -475.56731448

__s__    ...       0.10655719

 ALPHA AFTER:   0.25493094039350017

  **** Optimisation achieved ****

  Final energy =    -475.56731448 eV
  Final Gnorm  =       0.00051149

  Components of energy :

  Interatomic potentials     =          65.00930956 eV
  Monopole - monopole (real) =        -237.15330180 eV
  Monopole - monopole (recip)=        -303.42332225 eV
  Monopole - monopole (total)=        -540.57662404 eV
  Total lattice energy       =        -475.56731448 eV
  Total lattice energy       =          -45884.9761 kJ/(mole unit cells)

  Final fractional coordinates of atoms :

   No.  Atomic        x           y          z          Radius
        Label       (Frac)      (Frac)     (Frac)       (Angs)
     1  Sr    c     0.999850    0.000360    0.999990    0.000000
     2  Ti    c     0.166516    0.500154    0.500055    0.000000
     3  O     c     0.999849    0.500162    0.500084    0.000000
     4  O     c     0.166515    0.000140    0.500045    0.000000
     5  O     c     0.166515    0.500135    0.000059    0.000000
     6  Sr    c     0.333183    0.000118    0.000081    0.000000
     7  Ti    c     0.499849    0.500110    0.500101    0.000000
     8  O     c     0.333184    0.500102    0.500078    0.000000
     9  O     c     0.499849    0.000110    0.500116    0.000000
    10  O     c     0.499849    0.500112    0.000102    0.000000
    11  Sr    c     0.666515    0.000115    0.000105    0.000000
    12  Ti    c     0.833183    0.500155    0.500081    0.000000
    13  O     c     0.666516    0.500129    0.500091    0.000000
    14  O     c     0.833182    0.000140    0.500085    0.000000
    15  O     c     0.833183    0.500119    0.000086    0.000000

  Final Cartesian lattice vectors (Angstroms) :

       11.869496   -0.000000    0.000000
       -0.000000    3.956498   -0.000000
        0.000000   -0.000000    3.956499

  Final cell parameters and derivatives :

       a           11.869496 Angstrom     dE/de1(xx)     0.001200 eV/strain
       b            3.956498 Angstrom     dE/de2(yy)     0.001182 eV/strain
       c            3.956499 Angstrom     dE/de3(zz)     0.001217 eV/strain
       alpha       90.000000 Degrees      dE/de4(yz)    -0.000017 eV/strain
       beta        90.000000 Degrees      dE/de5(xz)     0.000001 eV/strain
       gamma       90.000000 Degrees      dE/de6(xy)    -0.000001 eV/strain

  Primitive cell volume =           185.803661 Angs**3

  Density of cell =      4.919932 g/cm**3

  Non-primitive cell volume =           185.803661 Angs**3

  Final internal derivatives :

   No.  Atomic          a             b             c           Radius
        Label          (eV)          (eV)          (eV)        (eV/Angs)
      1 Sr    c       0.000000      0.000000      0.000000      0.000000
      2 Ti    c       0.009859     -0.002225     -0.000132      0.000000
      3 O     c      -0.005593      0.004096      0.002734      0.000000
      4 O     c      -0.007047     -0.002455     -0.001608      0.000000
      5 O     c      -0.008059     -0.003141     -0.000257      0.000000
      6 Sr    c      -0.001178     -0.001368      0.000188      0.000000
      7 Ti    c      -0.008214     -0.001358      0.000701      0.000000
      8 O     c       0.008957     -0.007046     -0.000275      0.000000
      9 O     c       0.002985     -0.001364      0.002418      0.000000
     10 O     c       0.002774      0.000910      0.000862      0.000000
     11 Sr    c      -0.003790     -0.001699      0.001589      0.000000
     12 Ti    c       0.000744     -0.001641      0.001384      0.000000
     13 O     c       0.001092     -0.000590      0.000173      0.000000
     14 O     c       0.000766     -0.001929      0.000483      0.000000
     15 O     c       0.002214     -0.006349      0.001556      0.000000
  Maximum abs         0.009859      0.007046      0.002734      0.000000

  Time to end of optimisation =       0.1050 seconds

 Exiting ------OPTIONS------

  Timing analysis for GULP :

  Task / Subroutine                                          Time (Seconds)
  Calculation of reciprocal space energy and derivatives          0.0117
  Calculation of real space energy and derivatives                0.0852

  Job Finished at 11:51.17  4th February   2020