  Job Started  at 13:26.45 21st February   2020

  Number of CPUs =     1

  Total number of configurations input =      1

*  Input for Configuration =   1                                               *

  Formula = Sr3Ti3O9

  Number of irreducible atoms/shells =      15

  Total number atoms/shells =      15

  Dimensionality = 3               :  Bulk

  Cartesian lattice vectors (Angstroms) :

       12.000000    0.000000    0.000000
        0.000000    4.000000    0.000000
        0.000000    0.000000    4.000000

  Cell parameters (Angstroms/Degrees):

  a =      12.0000    alpha =  90.0000
  b =       4.0000    beta  =  90.0000
  c =       4.0000    gamma =  90.0000

  Initial cell volume =         192.000000 Angs**3

  Temperature of configuration =  0.000     K

  Pressure of configuration =         0.000 GPa

  Fractional coordinates of asymmetric unit :

   No.  Atomic       x           y          z         Charge      Occupancy
        Label      (Frac)      (Frac)     (Frac)        (e)         (Frac)
      1 Sr    c    0.999850    0.000360    0.999990     2.00000    1.000000
      2 Ti    c    0.166710 *  0.500030 *  0.500050 *   4.00000    1.000000
      3 O     c    0.000050 *  0.500680 *  0.500190 *  -2.00000    1.000000
      4 O     c    0.166570 *  0.999870 *  0.499700 *  -2.00000    1.000000
      5 O     c    0.166600 *  0.499850 *  0.999910 *  -2.00000    1.000000
      6 Sr    c    0.333370 *  0.000290 *  0.999980 *   2.00000    1.000000
      7 Ti    c    0.500060 *  0.500190 *  0.500580 *   4.00000    1.000000
      8 O     c    0.333440 *  0.499320 *  0.500160 *  -2.00000    1.000000
      9 O     c    0.500070 *  0.000580 *  0.500650 *  -2.00000    1.000000
     10 O     c    0.500040 *  0.499980 *  0.999500 *  -2.00000    1.000000
     11 Sr    c    0.666980 *  0.000650 *  0.999700 *   2.00000    1.000000
     12 Ti    c    0.833180 *  0.500010 *  0.500730 *   4.00000    1.000000
     13 O     c    0.666770 *  0.499940 *  0.500100 *  -2.00000    1.000000
     14 O     c    0.833490 *  0.000170 *  0.499850 *  -2.00000    1.000000
     15 O     c    0.833340 *  0.499170 *  0.000420 *  -2.00000    1.000000

*  General input information                                                   *

  Species output for all configurations :

  Species    Type    Atomic    Atomic    Charge       Radii (Angs)     Library
                     Number     Mass       (e)     Cova   Ionic  VDW   Symbol
    Sr       Core       38      87.62   2.000000   1.120  0.000  1.670
    Ti       Core       22      47.88   4.000000   1.470  0.000  2.190
    O        Core        8      16.00  -2.000000   0.730  0.000  1.360

  Lattice summation method               =    Ewald          (3-D)
                                         =    Parry          (2-D)
                                         =    Saunders et al (1-D)
  Accuracy factor for lattice sums       =   12.000

  Time limit = Infinity

  Maximum range for interatomic potentials =    100000.000000 Angstroms

  General interatomic potentials :

Atom  Types   Potential      Parameter       Value         Units   Cutoffs(Ang)
  1     2                                                            Min /  Max
O    c Sr   c Buckingham    Buckingham A     1952.3900    eV        0.000 10.000
                            Buckingham rho  0.33685000    Ang
                            Buckingham C     19.220000    eV*Ang^6
O    c Ti   c Buckingham    Buckingham A     4590.7279    eV        0.000 10.000
                            Buckingham rho  0.26100000    Ang
                            Buckingham C     0.0000000    eV*Ang^6
O    c O    c Buckingham    Buckingham A     1388.7700    eV        0.000 10.000
                            Buckingham rho  0.36262000    Ang
                            Buckingham C     175.00000    eV*Ang^6
 Calling ------OPTIONS------

*  Output for configuration   1                                                *

  Components of energy :

  Interatomic potentials     =          59.32167851 eV
  Monopole - monopole (real) =        -234.57426617 eV
  Monopole - monopole (recip)=        -300.12329799 eV
  Monopole - monopole (total)=        -534.69756416 eV
  Total lattice energy       =        -475.37588565 eV
  Total lattice energy       =          -45866.5062 kJ/(mole unit cells)

  Number of variables =       48

  Maximum number of calculations  =          1000
  Maximum Hessian update interval =            10
  Maximum step size               =   1.000000000
  Maximum parameter tolerance     =   0.000010000
  Maximum function  tolerance     =   0.000010000
  Maximum gradient  tolerance     =   0.001000000
  Maximum gradient  component     =   0.010000000

  Cell parameters to be optimised using strains

  Conjugate gradient optimiser to be used

  Lower half triangular hessian to be used

  Minimiser to switch to BFGS with exact hessian
  When gradient norm is less than     0.500000

  Start of bulk optimisation :

  ** Hessian calculated **
 ALPHA BEFORE:    1.0000000000000000
 XC BEFORE:   0.16670999999996639
  ** Opt : line minimisation
left   ...       0.00000000    -475.37588565
centre ...       0.25000000    -475.46176315
right  ...       0.50000000    -475.52270119

left   ...       0.00000000    -475.37588565
centre ...       0.25000000    -475.46176315
right  ...       0.50000000    -475.52270119
new    ...       0.98585987    -475.56714645

__s__    ...       0.48585987

[...]

 ALPHA AFTER:   0.96396028615924656
 XC AFTER:   0.16651797650139616
 SANITY CHECK:   0.96396028615930685
 DIRECTION dim            1  value   -1.9920270713153832E-004
 DIRECTION dim            2  value    3.3671695911261689E-004
 DIRECTION dim            3  value   -6.6714320099262077E-005
 DIRECTION dim            4  value   -2.1871194486647064E-004
 DIRECTION dim            5  value   -2.9057262473600697E-004
 DIRECTION dim            6  value   -1.9380885240472085E-004
 DIRECTION dim            7  value   -6.6255809546422853E-005
 DIRECTION dim            8  value    5.3482723133670173E-004
 DIRECTION dim            9  value    2.9849537378488159E-004
 DIRECTION dim           10  value   -9.6277260270358068E-005
 DIRECTION dim           11  value    5.4470668909715201E-004
 DIRECTION dim           12  value    1.0249148790264989E-004
 DIRECTION dim           13  value   -2.0060385035917282E-004
 DIRECTION dim           14  value    2.5896316392653068E-005
 DIRECTION dim           15  value    3.3485099463036008E-006
 DIRECTION dim           16  value   -2.2097915648560412E-004
 DIRECTION dim           17  value    2.3297564931354798E-004
 DIRECTION dim           18  value   -6.9680855815576958E-004
 DIRECTION dim           19  value   -2.8176290384279549E-004
 DIRECTION dim           20  value    1.0758924046345565E-003
 DIRECTION dim           21  value   -1.6650058191632438E-004
 DIRECTION dim           22  value   -2.3946196390721577E-004
 DIRECTION dim           23  value   -2.5724771933633561E-004
 DIRECTION dim           24  value   -6.6597779911075803E-004
 DIRECTION dim           25  value   -2.0864827028480238E-004
 DIRECTION dim           26  value    4.0801655398536082E-004
 DIRECTION dim           27  value    6.3093975006179909E-004
 DIRECTION dim           28  value   -4.8966097369616964E-004
 DIRECTION dim           29  value   -3.4174060206688007E-004
 DIRECTION dim           30  value    3.1381186253307501E-004
 DIRECTION dim           31  value    1.2517139154205934E-005
 DIRECTION dim           32  value    3.9762367630125962E-004
 DIRECTION dim           33  value   -7.4905520425376764E-004
 DIRECTION dim           34  value   -2.8459105501306035E-004
 DIRECTION dim           35  value    4.6113129809366443E-004
 DIRECTION dim           36  value   -1.1538038866580043E-004
 DIRECTION dim           37  value   -3.0982920798925865E-004
 DIRECTION dim           38  value    1.9378818459464607E-004
 DIRECTION dim           39  value    1.4283331562218212E-004
 DIRECTION dim           40  value   -1.6003324713462336E-004
 DIRECTION dim           41  value    1.2350188909618831E-003
 DIRECTION dim           42  value   -3.9910787885110186E-004
 DIRECTION dim           43  value   -1.1341138287438450E-002
 DIRECTION dim           44  value   -1.1342331032216418E-002
 DIRECTION dim           45  value   -1.1351343763021042E-002
 DIRECTION dim           46  value    5.1167977366926044E-007
 DIRECTION dim           47  value   -2.3979569478132708E-007
 DIRECTION dim           48  value   -3.0062717776033499E-007
 ALPHA BEFORE:    75.355721100654918
 XC BEFORE:   0.16651797650139616
  ** Opt : line minimisation
left   ...       0.00000000    -475.56730155
centre ...       1.00000000    -475.56731780
right  ...       2.00000000    -475.56729071

[...]

 ALPHA AFTER:    1.0000000000000000
 XC AFTER:   0.16651663569884975
 SANITY CHECK:    1.0000000000052678
 DIRECTION dim            1  value   -1.3408025463997200E-006
 DIRECTION dim            2  value    5.3916926607281532E-006
 DIRECTION dim            3  value    4.7450901872375036E-006
 DIRECTION dim            4  value    1.3939045950137187E-005
 DIRECTION dim            5  value   -4.2836249867915409E-005
 DIRECTION dim            6  value   -1.5659605715828928E-005
 DIRECTION dim            7  value    1.2247844427693298E-005
 DIRECTION dim            8  value   -3.2305074183092289E-005
 DIRECTION dim            9  value    1.4900451926737882E-007
 DIRECTION dim           10  value    1.1167410207444977E-005
 DIRECTION dim           11  value   -1.9221393943773467E-005
 DIRECTION dim           12  value   -2.3964050801132770E-005
 DIRECTION dim           13  value    6.8956035770986051E-006
 DIRECTION dim           14  value    4.6828203657176761E-005
 DIRECTION dim           15  value    1.0783397798228331E-005
 DIRECTION dim           16  value    3.1893286537343371E-006
 DIRECTION dim           17  value   -6.3962367069753955E-005
 DIRECTION dim           18  value    9.6775649345628179E-005
 DIRECTION dim           19  value    1.8257300453220695E-005
 DIRECTION dim           20  value   -5.0026253345195903E-007
 DIRECTION dim           21  value   -1.3425850498478216E-005
 DIRECTION dim           22  value    1.2767696365410090E-005
 DIRECTION dim           23  value    3.5628890557674640E-005
 DIRECTION dim           24  value   -2.3464321851441109E-005
 DIRECTION dim           25  value    1.3067751806681229E-005
 DIRECTION dim           26  value   -1.6146753087545609E-005
 DIRECTION dim           27  value   -1.4673481472420480E-004
 DIRECTION dim           28  value    9.7617123231722560E-006
 DIRECTION dim           29  value    4.0344838749822484E-005
 DIRECTION dim           30  value   -1.0846025977128957E-005
 DIRECTION dim           31  value   -1.0096580783664537E-005
 DIRECTION dim           32  value   -3.8525626628836515E-005
 DIRECTION dim           33  value   -1.6587860901561870E-005
 DIRECTION dim           34  value    2.5092352235419068E-005
 DIRECTION dim           35  value   -2.7627935307040711E-005
 DIRECTION dim           36  value   -1.7734354819459803E-006
 DIRECTION dim           37  value   -7.4340490575363284E-006
 DIRECTION dim           38  value    5.2578907929899475E-006
 DIRECTION dim           39  value    3.5510308482344511E-007
 DIRECTION dim           40  value   -1.8631240416568796E-006
 DIRECTION dim           41  value   -3.0750382686246467E-006
 DIRECTION dim           42  value   -5.1412933005585173E-005
 DIRECTION dim           43  value    5.6790471266429801E-005
 DIRECTION dim           44  value    5.7646718194574094E-005
 DIRECTION dim           45  value    7.1714555113854499E-005
 DIRECTION dim           46  value   -2.3497450089313418E-007
 DIRECTION dim           47  value    2.8747106446594659E-007
 DIRECTION dim           48  value    3.4896002834516907E-007
 ALPHA BEFORE:    6.1911492230066933
 XC BEFORE:   0.16651663569884975
  ** Opt : line minimisation
left   ...       0.00000000    -475.56731780
centre ...       1.00000000    -475.56731824
right  ...       2.00000000    -475.56731775

left   ...       0.00000000    -475.56731780
centre ...       1.00000000    -475.56731824
right  ...       2.00000000    -475.56731775
new    ...       1.00000000    -475.56731824

__s__    ...      -1.00000000

 ALPHA AFTER:    1.0000000000000000
 XC AFTER:   0.16651666604195978
 SANITY CHECK:   0.99999999975196130
 DIRECTION dim            1  value    3.0343110032115047E-008
 DIRECTION dim            2  value   -1.5578099878373518E-007
 DIRECTION dim            3  value   -3.7965473246011957E-007
 DIRECTION dim            4  value   -3.3163090086752928E-006
 DIRECTION dim            5  value    2.6541194432525472E-006
 DIRECTION dim            6  value    2.6586075340947019E-006
 DIRECTION dim            7  value   -1.7719327995820815E-006
 DIRECTION dim            8  value    6.7592312857182521E-006
 DIRECTION dim            9  value    2.4173099711310470E-006
 DIRECTION dim           10  value   -1.7517634440460956E-006
 DIRECTION dim           11  value    3.9971308968033985E-006
 DIRECTION dim           12  value    5.5208391437981633E-006
 DIRECTION dim           13  value   -7.9914305274043353E-008
 DIRECTION dim           14  value   -1.3120563406339416E-006
 DIRECTION dim           15  value   -4.5563560206034672E-006
 DIRECTION dim           16  value   -1.1428729655250984E-007
 DIRECTION dim           17  value    9.3700806710365251E-006
 DIRECTION dim           18  value   -1.5451996696441236E-005
 DIRECTION dim           19  value   -3.4275014086589182E-006
 DIRECTION dim           20  value    3.2464439278696290E-006
 DIRECTION dim           21  value    4.2918547181445333E-006
 DIRECTION dim           22  value   -1.9621336496282056E-006
 DIRECTION dim           23  value   -8.1516388566237630E-006
 DIRECTION dim           24  value    5.8618051872655887E-006
 DIRECTION dim           25  value   -1.9561146164944105E-006
 DIRECTION dim           26  value    2.5225671946269132E-006
 DIRECTION dim           27  value    2.9663243559510746E-005
 DIRECTION dim           28  value   -9.6266932117557331E-007
 DIRECTION dim           29  value   -2.0408316717417098E-007
 DIRECTION dim           30  value   -2.4157489430905417E-006
 DIRECTION dim           31  value    1.3036659843222875E-006
 DIRECTION dim           32  value    5.1635460796220684E-006
 DIRECTION dim           33  value   -1.4630759500911962E-006
 DIRECTION dim           34  value   -4.1642254409046912E-006
 DIRECTION dim           35  value    2.7735979750850294E-006
 DIRECTION dim           36  value    3.4198548880546869E-006
 DIRECTION dim           37  value   -7.5476425567390057E-007
 DIRECTION dim           38  value   -2.3266958475226396E-006
 DIRECTION dim           39  value    2.2492590399652262E-006
 DIRECTION dim           40  value   -6.9035207908411684E-007
 DIRECTION dim           41  value    2.4617634112739900E-006
 DIRECTION dim           42  value    6.4039758917545580E-006
 DIRECTION dim           43  value   -6.6225012998030853E-008
 DIRECTION dim           44  value    2.9527908949255496E-007
 DIRECTION dim           45  value   -5.7764979131242276E-006
 DIRECTION dim           46  value   -2.8542526202852982E-007
 DIRECTION dim           47  value   -7.4780243319823038E-008
 DIRECTION dim           48  value   -4.2743435183988795E-008

  **** Optimisation achieved ****

  Final energy =    -475.56731824 eV
  Final Gnorm  =       0.00003504

  Components of energy :

  Interatomic potentials     =          65.00957227 eV
  Monopole - monopole (real) =        -237.15341773 eV
  Monopole - monopole (recip)=        -303.42347278 eV
  Monopole - monopole (total)=        -540.57689052 eV
  Total lattice energy       =        -475.56731824 eV
  Total lattice energy       =          -45884.9765 kJ/(mole unit cells)

  Final fractional coordinates of atoms :

   No.  Atomic        x           y          z          Radius
        Label       (Frac)      (Frac)     (Frac)       (Angs)
     1  Sr    c     0.999850    0.000360    0.999990    0.000000
     2  Ti    c     0.166517    0.500360    0.499990    0.000000
     3  O     c     0.999850    0.500360    0.499990    0.000000
     4  O     c     0.166517    0.000360    0.499990    0.000000
     5  O     c     0.166517    0.500360    0.999990    0.000000
     6  Sr    c     0.333183    0.000360    0.999989    0.000000
     7  Ti    c     0.499850    0.500360    0.499990    0.000000
     8  O     c     0.333183    0.500360    0.499990    0.000000
     9  O     c     0.499850    0.000360    0.499990    0.000000
    10  O     c     0.499850    0.500360    0.999991    0.000000
    11  Sr    c     0.666517    0.000361    0.999989    0.000000
    12  Ti    c     0.833183    0.500360    0.499990    0.000000
    13  O     c     0.666517    0.500360    0.499990    0.000000
    14  O     c     0.833183    0.000360    0.499990    0.000000
    15  O     c     0.833183    0.500360    0.999990    0.000000

  Final Cartesian lattice vectors (Angstroms) :

       11.869492    0.000000   -0.000000
        0.000000    3.956498   -0.000000
       -0.000000   -0.000000    3.956495

  Final cell parameters and derivatives :

       a           11.869492 Angstrom     dE/de1(xx)     0.000725 eV/strain
       b            3.956498 Angstrom     dE/de2(yy)     0.000745 eV/strain
       c            3.956495 Angstrom     dE/de3(zz)     0.000543 eV/strain
       alpha       90.000000 Degrees      dE/de4(yz)    -0.000007 eV/strain
       beta        90.000000 Degrees      dE/de5(xz)    -0.000005 eV/strain
       gamma       90.000000 Degrees      dE/de6(xy)     0.000004 eV/strain

  Primitive cell volume =           185.803385 Angs**3

  Density of cell =      4.919939 g/cm**3

  Non-primitive cell volume =           185.803385 Angs**3

  Final internal derivatives :

   No.  Atomic          a             b             c           Radius
        Label          (eV)          (eV)          (eV)        (eV/Angs)
      1 Sr    c       0.000000      0.000000      0.000000      0.000000
      2 Ti    c       0.000099     -0.000068     -0.000067      0.000000
      3 O     c      -0.000550     -0.000038      0.000015      0.000000
      4 O     c       0.000175      0.000080      0.000024      0.000000
      5 O     c       0.000172     -0.000025      0.000072      0.000000
      6 Sr    c       0.000109      0.000078     -0.000069      0.000000
      7 Ti    c       0.000331      0.000056     -0.000358      0.000000
      8 O     c      -0.000404      0.000014      0.000005      0.000000
      9 O     c       0.000016     -0.000167     -0.000019      0.000000
     10 O     c       0.000030      0.000003      0.000471      0.000000
     11 Sr    c       0.000172      0.000105     -0.000084      0.000000
     12 Ti    c       0.000380      0.000013     -0.000135      0.000000
     13 O     c      -0.000037     -0.000021      0.000041      0.000000
     14 O     c      -0.000306     -0.000060      0.000066      0.000000
     15 O     c      -0.000245      0.000013      0.000044      0.000000
  Maximum abs         0.000550      0.000167      0.000471      0.000000

  Time to end of optimisation =       0.0333 seconds

 Exiting ------OPTIONS------

  Timing analysis for GULP :

  Task / Subroutine                                          Time (Seconds)
  Calculation of reciprocal space energy and derivatives          0.0035
  Calculation of real space energy and derivatives                0.0241
  Calculation of matrix inversion                                 0.0001

  Job Finished at 13:26.45 21st February   2020