  Job Started  at 12:02.50  4th February   2020

  Number of CPUs =     1

  Total number of configurations input =      1

*  Input for Configuration =   1                                               *

  Formula = O9Sr3Ti3

  Number of irreducible atoms/shells =      15

  Total number atoms/shells =      15

  Dimensionality = 3               :  Bulk

  Cartesian lattice vectors (Angstroms) :

        6.000000    0.000000    0.000000
        0.000000    6.000000    0.000000
        0.000000    0.000000   12.000000

  Cell parameters (Angstroms/Degrees):

  a =       6.0000    alpha =  90.0000
  b =       6.0000    beta  =  90.0000
  c =      12.0000    gamma =  90.0000

  Initial cell volume =         432.000000 Angs**3

  Temperature of configuration =  0.000     K

  Pressure of configuration =         0.000 GPa

  Fractional coordinates of asymmetric unit :

   No.  Atomic       x           y          z         Charge      Occupancy
        Label      (Frac)      (Frac)     (Frac)        (e)         (Frac)
      1 O     c    0.000000    0.333330    0.833330    -2.00000    1.000000
      2 O     c    0.666670 *  0.666670 *  0.000000 *  -2.00000    1.000000
      3 O     c    0.333330 *  0.666670 *  0.166670 *  -2.00000    1.000000
      4 O     c    0.333330 *  0.000000 *  0.166670 *  -2.00000    1.000000
      5 O     c    0.333330 *  0.333330 *  0.166670 *  -2.00000    1.000000
      6 O     c    0.333330 *  0.333330 *  0.833330 *  -2.00000    1.000000
      7 O     c    0.333330 *  0.000000 *  0.500000 *  -2.00000    1.000000
      8 O     c    0.666670 *  0.000000 *  0.000000 *  -2.00000    1.000000
      9 O     c    0.666670 *  0.000000 *  0.166670 *  -2.00000    1.000000
     10 Sr    c    0.500000 *  0.833330 *  0.916670 *   2.00000    1.000000
     11 Sr    c    0.166670 *  0.500000 *  0.916670 *   2.00000    1.000000
     12 Sr    c    0.166670 *  0.833330 *  0.416670 *   2.00000    1.000000
     13 Ti    c    0.833330 *  0.500000 *  0.416670 *   4.00000    1.000000
     14 Ti    c    0.166670 *  0.166670 *  0.916670 *   4.00000    1.000000
     15 Ti    c    0.833330 *  0.833330 *  0.583330 *   4.00000    1.000000

*  General input information                                                   *

  Species output for all configurations :

  Species    Type    Atomic    Atomic    Charge       Radii (Angs)     Library
                     Number     Mass       (e)     Cova   Ionic  VDW   Symbol
    O        Core        8      16.00  -2.000000   0.730  0.000  1.360
    Sr       Core       38      87.62   2.000000   1.120  0.000  1.670
    Ti       Core       22      47.88   4.000000   1.470  0.000  2.190

  Lattice summation method               =    Ewald          (3-D)
                                         =    Parry          (2-D)
                                         =    Saunders et al (1-D)
  Accuracy factor for lattice sums       =   12.000

  Time limit = Infinity

  Maximum range for interatomic potentials =    100000.000000 Angstroms

  General interatomic potentials :

Atom  Types   Potential      Parameter       Value         Units   Cutoffs(Ang)
  1     2                                                            Min /  Max
O    c Sr   c Buckingham    Buckingham A     1952.3900    eV        0.000 10.000
                            Buckingham rho  0.33685000    Ang
                            Buckingham C     19.220000    eV*Ang^6
O    c Ti   c Buckingham    Buckingham A     4590.7279    eV        0.000 10.000
                            Buckingham rho  0.26100000    Ang
                            Buckingham C     0.0000000    eV*Ang^6
O    c O    c Buckingham    Buckingham A     1388.7700    eV        0.000 10.000
                            Buckingham rho  0.36262000    Ang
                            Buckingham C     175.00000    eV*Ang^6
 Calling ------OPTIONS------

*  Output for configuration   1                                                *

  Components of energy :

  Interatomic potentials     =          86.73882635 eV
  Monopole - monopole (real) =         -15.03500613 eV
  Monopole - monopole (recip)=        -125.05826005 eV
  Monopole - monopole (total)=        -140.09326618 eV
  Total lattice energy       =         -53.35443983 eV
  Total lattice energy       =           -5147.8878 kJ/(mole unit cells)

  Number of variables =       48

  Maximum number of calculations  =          1000
  Maximum Hessian update interval =            10
  Maximum step size               =   1.000000000
  Maximum parameter tolerance     =   0.000010000
  Maximum function  tolerance     =   0.000010000
  Maximum gradient  tolerance     =   0.001000000
  Maximum gradient  component     =   0.010000000

  Cell parameters to be optimised using strains

  Conjugate gradient optimiser to be used

  Lower half triangular hessian to be used

  Minimiser to switch to BFGS with exact hessian
  When gradient norm is less than     0.500000

  Start of bulk optimisation :

 Perform trimming
 Line minimisation2
 ALPHA BEFORE:    1.0000000000000000
  ** Opt : line minimisation
left   ...       0.00000000     -53.35443983
centre ...       0.25000000    -118.66801073
right  ...       0.50000000    -168.59695500

left   ...       0.00000000     -53.35443983
centre ...       0.25000000    -118.66801073
right  ...       0.50000000    -168.59695500
new    ...       1.18634475    -253.88567143

__s__    ...       0.68634475

[...]

 ALPHA AFTER:    1.8036865373670468
 Perform trimming
 Line minimisation2
 ALPHA BEFORE:    1.8036865373670468
  ** Opt : line minimisation
left   ...       0.00000000    -278.26112510
centre ...       0.45092163    -313.86530737
right  ...       0.90184327    -207.04532650

[...]

 ALPHA AFTER:   0.52706422453083079
 Line minimisation2
 ALPHA BEFORE:   0.52706422453083079
  ** Opt : line minimisation
left   ...       0.00000000    -348.67815793
centre ...       0.13176606    -366.24553655
right  ...       0.26353211    -289.68166079

[...]

 ALPHA AFTER:    1.9075222114129611
 Perform trimming
 Line minimisation2
 ALPHA BEFORE:    1.9075222114129611
  ** Opt : line minimisation
left   ...       0.00000000    -459.59387656
centre ...       0.47688055    -460.58330379
right  ...       0.95376111    -461.13538766

[...]

 ALPHA AFTER:   0.19471858128166936
  ** Hessian calculated **
 Line minimisation2
 ALPHA BEFORE:    1.0000000000000000
  ** Opt : line minimisation
left   ...       0.00000000    -464.87203593
centre ...       0.25000000    -464.93362337
right  ...       0.50000000    -464.99559686

[...]

 ALPHA AFTER:    1.3605360193712088E-004
 Line minimisation2
 ALPHA BEFORE:    1.3607478309672752E-004
  ** Opt : line minimisation
left   ...       0.00000000    -471.01883231
centre ...       0.00003402    -471.01883232
right  ...       0.00006804    -471.01865732

[...]

 ALPHA AFTER:   -2.4148174552529535E-003
  ** Hessian calculated **
 Line minimisation2
 ALPHA BEFORE:    1.0000000000000000
  ** Opt : line minimisation
left   ...       0.00000000    -471.01883232
centre ...       0.25000000    -471.01866807
right  ...      -0.25000000    -471.01881851

[...]

left   ...      -0.00484024    -471.01883208
centre ...       0.00000000    -471.01883232
right  ...       0.00419122    -471.01865752
new    ...      -0.00241482    -471.01883220

__s__    ...       0.00242542

 ALPHA AFTER:   -2.4148174552529535E-003

  **** Conditions for a minimum have not been satisfied. However ****
  **** no lower point can be found - treat results with caution  ****
  **** unless gradient norm is small (less than 0.1)             ****

  Final energy =    -471.01883232 eV
  Final Gnorm  =       0.00391194

  Components of energy :

  Interatomic potentials     =          72.58623716 eV
  Monopole - monopole (real) =        -272.11815011 eV
  Monopole - monopole (recip)=        -271.48691936 eV
  Monopole - monopole (total)=        -543.60506948 eV
  Total lattice energy       =        -471.01883232 eV
  Total lattice energy       =          -45446.1171 kJ/(mole unit cells)

  Final fractional coordinates of atoms :

   No.  Atomic        x           y          z          Radius
        Label       (Frac)      (Frac)     (Frac)       (Angs)
     1  O     c     0.000000    0.333330    0.833330    0.000000
     2  O     c     0.039654    0.480119    0.257961    0.000000
     3  O     c     0.781854    0.755015    0.293224    0.000000
     4  O     c     0.281874    0.005809    0.101444    0.000000
     5  O     c     0.499787    0.446560    0.032443    0.000000
     6  O     c     0.485014    0.241095    0.768660    0.000000
     7  O     c     0.436318    0.907213    0.647043    0.000000
     8  O     c     0.962549    0.044187    0.721502    0.000000
     9  O     c     0.649163    0.314119    0.442128    0.000000
    10  Sr    c     0.100384    0.105134    0.353224    0.000000
    11  Sr    c     0.146416    0.706693    0.879996    0.000000
    12  Sr    c     0.443527    0.752713    0.406413    0.000000
    13  Ti    c     0.751664    0.511134    0.244837    0.000000
    14  Ti    c     0.272834    0.224914    0.895720    0.000000
    15  Ti    c     0.692610    0.156442    0.692442    0.000000

  Final Cartesian lattice vectors (Angstroms) :

        5.745237   -1.195190   -0.824782
       -1.195190    6.727604    0.712051
       -1.649564    1.424103    7.293729

  Final cell parameters and derivatives :

       a            5.925917 Angstrom     dE/de1(xx)     0.013510 eV/strain
       b            6.869946 Angstrom     dE/de2(yy)     0.029098 eV/strain
       c            7.612333 Angstrom     dE/de3(zz)     0.065466 eV/strain
       alpha       71.324319 Degrees      dE/de4(yz)    -0.008299 eV/strain
       beta       112.406646 Degrees      dE/de5(xz)     0.003507 eV/strain
       gamma      112.371154 Degrees      dE/de6(xy)     0.007347 eV/strain

  Primitive cell volume =           259.324636 Angs**3

  Density of cell =      3.525085 g/cm**3

  Non-primitive cell volume =           259.324636 Angs**3

  Final internal derivatives :

   No.  Atomic          a             b             c           Radius
        Label          (eV)          (eV)          (eV)        (eV/Angs)
      1 O     c       0.000000      0.000000      0.000000      0.000000
      2 O     c      -0.006273      0.001240      0.001900      0.000000
      3 O     c      -0.000121      0.017791      0.015059      0.000000
      4 O     c      -0.020710     -0.009443      0.093088      0.000000
      5 O     c      -0.017931     -0.000960     -0.045124      0.000000
      6 O     c       0.047490     -0.025014     -0.072563      0.000000
      7 O     c      -0.005383      0.013912      0.022968      0.000000
      8 O     c      -0.007396      0.003051     -0.008057      0.000000
      9 O     c      -0.012344      0.007106      0.018686      0.000000
     10 Sr    c       0.009991     -0.017304     -0.031878      0.000000
     11 Sr    c      -0.002394      0.013826      0.010552      0.000000
     12 Sr    c       0.003604     -0.015392     -0.002490      0.000000
     13 Ti    c       0.026116      0.013200      0.007402      0.000000
     14 Ti    c      -0.016712      0.021617     -0.055165      0.000000
     15 Ti    c      -0.004219      0.012486      0.035314      0.000000
  Maximum abs         0.047490      0.025014      0.093088      0.000000

  Time to end of optimisation =       1.0355 seconds

 Exiting ------OPTIONS------

  Timing analysis for GULP :

  Task / Subroutine                                          Time (Seconds)
  Calculation of reciprocal space energy and derivatives          0.0660
  Calculation of real space energy and derivatives                0.9535
  Calculation and manipulation of Hessian matrix                  0.0001
  Calculation of matrix inversion                                 0.0004
  Global summation overhead                                       0.0004

  Job Finished at 12:02.51  4th February   2020