  Job Started  at 16:28.19  3rd February   2020

  Number of CPUs =     1

  Total number of configurations input =      1

*  Input for Configuration =   1                                               *

  Formula = O9Sr3Ti3

  Number of irreducible atoms/shells =      15

  Total number atoms/shells =      15

  Dimensionality = 3               :  Bulk

  Cartesian lattice vectors (Angstroms) :

        4.000000    0.000000    0.000000
        0.000000    4.000000    0.000000
        0.000000    0.000000    8.000000

  Cell parameters (Angstroms/Degrees):

  a =       4.0000    alpha =  90.0000
  b =       4.0000    beta  =  90.0000
  c =       8.0000    gamma =  90.0000

  Initial cell volume =         128.000000 Angs**3

  Temperature of configuration =  0.000     K

  Pressure of configuration =         0.000 GPa

  Fractional coordinates of asymmetric unit :

   No.  Atomic       x           y          z         Charge      Occupancy
        Label      (Frac)      (Frac)     (Frac)        (e)         (Frac)
      1 O     c    0.500000    0.500000    0.750000    -2.00000    1.000000
      2 O     c    0.500000 *  0.000000 *  0.750000 *  -2.00000    1.000000
      3 O     c    0.000000 *  0.500000 *  0.750000 *  -2.00000    1.000000
      4 O     c    0.000000 *  0.500000 *  0.000000 *  -2.00000    1.000000
      5 O     c    0.000000 *  0.000000 *  0.250000 *  -2.00000    1.000000
      6 O     c    0.500000 *  0.000000 *  0.250000 *  -2.00000    1.000000
      7 O     c    0.500000 *  0.500000 *  0.250000 *  -2.00000    1.000000
      8 O     c    0.500000 *  0.500000 *  0.500000 *  -2.00000    1.000000
      9 O     c    0.500000 *  0.000000 *  0.500000 *  -2.00000    1.000000
     10 Sr    c    0.250000 *  0.750000 *  0.375000 *   2.00000    1.000000
     11 Sr    c    0.250000 *  0.750000 *  0.875000 *   2.00000    1.000000
     12 Sr    c    0.250000 *  0.250000 *  0.625000 *   2.00000    1.000000
     13 Ti    c    0.250000 *  0.750000 *  0.625000 *   4.00000    1.000000
     14 Ti    c    0.750000 *  0.250000 *  0.875000 *   4.00000    1.000000
     15 Ti    c    0.750000 *  0.750000 *  0.375000 *   4.00000    1.000000

*  General input information                                                   *

  Species output for all configurations :

  Species    Type    Atomic    Atomic    Charge       Radii (Angs)     Library
                     Number     Mass       (e)     Cova   Ionic  VDW   Symbol
    O        Core        8      16.00  -2.000000   0.730  0.000  1.360
    Sr       Core       38      87.62   2.000000   1.120  0.000  1.670
    Ti       Core       22      47.88   4.000000   1.470  0.000  2.190

  Lattice summation method               =    Ewald          (3-D)
                                         =    Parry          (2-D)
                                         =    Saunders et al (1-D)
  Accuracy factor for lattice sums       =   12.000

  Time limit = Infinity

  Maximum range for interatomic potentials =    100000.000000 Angstroms

  General interatomic potentials :

Atom  Types   Potential      Parameter       Value         Units   Cutoffs(Ang)
  1     2                                                            Min /  Max
O    c Sr   c Buckingham    Buckingham A     1952.3900    eV        0.000 10.000
                            Buckingham rho  0.33685000    Ang
                            Buckingham C     19.220000    eV*Ang^6
O    c Ti   c Buckingham    Buckingham A     4590.7279    eV        0.000 10.000
                            Buckingham rho  0.26100000    Ang
                            Buckingham C     0.0000000    eV*Ang^6
O    c O    c Buckingham    Buckingham A     1388.7700    eV        0.000 10.000
                            Buckingham rho  0.36262000    Ang
                            Buckingham C     175.00000    eV*Ang^6
 Calling ------OPTIONS------

*  Output for configuration   1                                                *

  Components of energy :

  Interatomic potentials     =         283.74069147 eV
  Monopole - monopole (real) =        -200.67401279 eV
  Monopole - monopole (recip)=        -313.23454466 eV
  Monopole - monopole (total)=        -513.90855745 eV
  Total lattice energy       =        -230.16786598 eV
  Total lattice energy       =          -22207.6806 kJ/(mole unit cells)

  Number of variables =       48

  Maximum number of calculations  =          1000
  Maximum Hessian update interval =            10
  Maximum step size               =   1.000000000
  Maximum parameter tolerance     =   0.000010000
  Maximum function  tolerance     =   0.000010000
  Maximum gradient  tolerance     =   0.001000000
  Maximum gradient  component     =   0.010000000

  Cell parameters to be optimised using strains

  Conjugate gradient optimiser to be used

  Lower half triangular hessian to be used

  Minimiser to switch to BFGS with exact hessian
  When gradient norm is less than     0.500000

  Start of bulk optimisation :

 Perform trimming
 Line minimisation2
 ALPHA BEFORE:    1.0000000000000000
  ** Opt : line minimisation
left   ...       0.00000000    -230.16786598
centre ...       0.25000000    -291.31288697
right  ...       0.50000000    -323.60564679

left   ...       0.00000000    -230.16786598
centre ...       0.25000000    -291.31288697
right  ...       0.50000000    -323.60564679
new    ...       0.65481134    -333.87884266

__s__    ...       0.15481134

[...]

 ALPHA AFTER:   0.92605424545865089
 Perform trimming
 Line minimisation2
 ALPHA BEFORE:   0.92605424545865089
  ** Opt : line minimisation
left   ...       0.00000000    -340.24616919
centre ...       0.23151356    -386.54672983
right  ...       0.46302712    -388.34292258

[...]

 ALPHA AFTER:   0.35661421101815116
 Line minimisation2
 ALPHA BEFORE:   0.35661421101815116
  ** Opt : line minimisation
left   ...       0.00000000    -392.10925495
centre ...       0.08915355    -399.51367342
right  ...       0.17830711    -405.09719178

[...]

 ALPHA AFTER:   0.56287195547737834
 Perform trimming
 Line minimisation2
 ALPHA BEFORE:   0.56287195547737834
  ** Opt : line minimisation
left   ...       0.00000000    -465.95513064
centre ...       0.14071799    -466.18246460
right  ...       0.28143598    -466.35766674

[...]

 ALPHA AFTER:   0.29234181169975926
  ** Hessian calculated **
 Line minimisation2
 ALPHA BEFORE:    1.0000000000000000
  ** Opt : line minimisation
left   ...       0.00000000    -468.79965008
centre ...       0.25000000    -468.92277962
right  ...       0.50000000    -469.03767684

[...]

 ALPHA AFTER:    1.0670323748392183
  ** Hessian calculated **
 Line minimisation2
 ALPHA BEFORE:    1.0000000000000000
  ** Opt : line minimisation
left   ...       0.00000000    -470.45639573
centre ...       0.25000000    -470.45678176
right  ...       0.50000000    -470.45696427

[...]

 ALPHA AFTER:    1.0000000000000000
 Line minimisation2
 ALPHA BEFORE:    3.3351373437349081
  ** Opt : line minimisation
left   ...       0.00000000    -470.45737062
centre ...       0.83378434    -470.45737076
right  ...       1.66756867    -470.45737059

left   ...       0.00000000    -470.45737062
centre ...       0.83378434    -470.45737076
right  ...       1.66756867    -470.45737059
new    ...       0.78984806    -470.45737076

__s__    ...      -0.87772061

 ALPHA AFTER:   0.78984806234987426

  **** Optimisation achieved ****

  Final energy =    -470.45737076 eV
  Final Gnorm  =       0.00020661

  Components of energy :

  Interatomic potentials     =          70.35668217 eV
  Monopole - monopole (real) =        -256.48146286 eV
  Monopole - monopole (recip)=        -284.33259008 eV
  Monopole - monopole (total)=        -540.81405293 eV
  Total lattice energy       =        -470.45737076 eV
  Total lattice energy       =          -45391.9447 kJ/(mole unit cells)

  Final fractional coordinates of atoms :

   No.  Atomic        x           y          z          Radius
        Label       (Frac)      (Frac)     (Frac)       (Angs)
     1  O     c     0.500000    0.500000    0.750000    0.000000
     2  O     c     0.475336    0.019123    0.780307    0.000000
     3  O     c     0.083977    0.670372    0.637234    0.000000
     4  O     c     0.813995    0.340123    0.968160    0.000000
     5  O     c     0.769860    0.991053    0.253350    0.000000
     6  O     c     0.368004    0.158808    0.121374    0.000000
     7  O     c     0.360835    0.643571    0.092255    0.000000
     8  O     c     0.567012    0.657215    0.417851    0.000000
     9  O     c     0.268489    0.010395    0.451219    0.000000
    10  Sr    c     0.971460    0.467643    0.278547    0.000000
    11  Sr    c     0.967371    0.836152    0.957271    0.000000
    12  Sr    c     0.892855    0.192238    0.604018    0.000000
    13  Ti    c     0.392627    0.733501    0.621098    0.000000
    14  Ti    c     0.492195    0.331836    0.946260    0.000000
    15  Ti    c     0.462787    0.921825    0.258787    0.000000

  Final Cartesian lattice vectors (Angstroms) :

        5.667278    0.135195    0.078818
        0.135195    5.233461   -0.518542
        0.157635   -1.037083    7.716413

  Final cell parameters and derivatives :

       a            5.669438 Angstrom     dE/de1(xx)     0.003678 eV/strain
       b            5.260825 Angstrom     dE/de2(yy)     0.001486 eV/strain
       c            7.787388 Angstrom     dE/de3(zz)     0.001437 eV/strain
       alpha      103.275296 Degrees      dE/de4(yz)    -0.000302 eV/strain
       beta        88.233038 Degrees      dE/de5(xz)     0.000278 eV/strain
       gamma       87.246420 Degrees      dE/de6(xy)     0.000069 eV/strain

  Primitive cell volume =           225.588906 Angs**3

  Density of cell =      4.052244 g/cm**3

  Non-primitive cell volume =           225.588906 Angs**3

  Final internal derivatives :

   No.  Atomic          a             b             c           Radius
        Label          (eV)          (eV)          (eV)        (eV/Angs)
      1 O     c       0.000000      0.000000      0.000000      0.000000
      2 O     c       0.000679      0.001484      0.001741      0.000000
      3 O     c      -0.004490     -0.000856      0.000901      0.000000
      4 O     c       0.003519      0.000005     -0.000202      0.000000
      5 O     c       0.002957      0.000544     -0.000125      0.000000
      6 O     c      -0.000209      0.000234      0.000782      0.000000
      7 O     c      -0.000346     -0.000299      0.001452      0.000000
      8 O     c      -0.001380     -0.001455     -0.000089      0.000000
      9 O     c      -0.000248      0.000364     -0.001071      0.000000
     10 Sr    c      -0.000031     -0.000282      0.000241      0.000000
     11 Sr    c       0.000077     -0.000104      0.000154      0.000000
     12 Sr    c      -0.000638      0.000690     -0.001023      0.000000
     13 Ti    c       0.002944      0.000245     -0.002185      0.000000
     14 Ti    c      -0.002261     -0.000575      0.000042      0.000000
     15 Ti    c      -0.001202     -0.000262      0.000735      0.000000
  Maximum abs         0.004490      0.001484      0.002185      0.000000

  Time to end of optimisation =       0.2891 seconds

 Exiting ------OPTIONS------

  Timing analysis for GULP :

  Task / Subroutine                                          Time (Seconds)
  Calculation of reciprocal space energy and derivatives          0.0362
  Calculation of real space energy and derivatives                0.2416
  Calculation of matrix inversion                                 0.0002
  Global summation overhead                                       0.0002

  Job Finished at 16:28.19  3rd February   2020