  Job Started  at 16:25.08  3rd February   2020

  Number of CPUs =     1

  Total number of configurations input =      1

*  Input for Configuration =   1                                               *

  Formula = O9Sr3Ti3

  Number of irreducible atoms/shells =      15

  Total number atoms/shells =      15

  Dimensionality = 3               :  Bulk

  Cartesian lattice vectors (Angstroms) :

        4.000000    0.000000    0.000000
        0.000000    4.000000    0.000000
        0.000000    0.000000    8.000000

  Cell parameters (Angstroms/Degrees):

  a =       4.0000    alpha =  90.0000
  b =       4.0000    beta  =  90.0000
  c =       8.0000    gamma =  90.0000

  Initial cell volume =         128.000000 Angs**3

  Temperature of configuration =  0.000     K

  Pressure of configuration =         0.000 GPa

  Fractional coordinates of asymmetric unit :

   No.  Atomic       x           y          z         Charge      Occupancy
        Label      (Frac)      (Frac)     (Frac)        (e)         (Frac)
      1 O     c    0.500000    0.500000    0.750000    -2.00000    1.000000
      2 O     c    0.500000 *  0.000000 *  0.750000 *  -2.00000    1.000000
      3 O     c    0.000000 *  0.500000 *  0.750000 *  -2.00000    1.000000
      4 O     c    0.000000 *  0.500000 *  0.000000 *  -2.00000    1.000000
      5 O     c    0.000000 *  0.000000 *  0.250000 *  -2.00000    1.000000
      6 O     c    0.500000 *  0.000000 *  0.250000 *  -2.00000    1.000000
      7 O     c    0.500000 *  0.500000 *  0.250000 *  -2.00000    1.000000
      8 O     c    0.500000 *  0.500000 *  0.500000 *  -2.00000    1.000000
      9 O     c    0.500000 *  0.000000 *  0.500000 *  -2.00000    1.000000
     10 Sr    c    0.250000 *  0.750000 *  0.375000 *   2.00000    1.000000
     11 Sr    c    0.250000 *  0.750000 *  0.875000 *   2.00000    1.000000
     12 Sr    c    0.250000 *  0.250000 *  0.625000 *   2.00000    1.000000
     13 Ti    c    0.250000 *  0.750000 *  0.625000 *   4.00000    1.000000
     14 Ti    c    0.750000 *  0.250000 *  0.875000 *   4.00000    1.000000
     15 Ti    c    0.750000 *  0.750000 *  0.375000 *   4.00000    1.000000

*  General input information                                                   *

  Species output for all configurations :

  Species    Type    Atomic    Atomic    Charge       Radii (Angs)     Library
                     Number     Mass       (e)     Cova   Ionic  VDW   Symbol
    O        Core        8      16.00  -2.000000   0.730  0.000  1.360
    Sr       Core       38      87.62   2.000000   1.120  0.000  1.670
    Ti       Core       22      47.88   4.000000   1.470  0.000  2.190

  Lattice summation method               =    Ewald          (3-D)
                                         =    Parry          (2-D)
                                         =    Saunders et al (1-D)
  Accuracy factor for lattice sums       =   12.000

  Time limit = Infinity

  Maximum range for interatomic potentials =    100000.000000 Angstroms

  General interatomic potentials :

Atom  Types   Potential      Parameter       Value         Units   Cutoffs(Ang)
  1     2                                                            Min /  Max
O    c Sr   c Buckingham    Buckingham A     1952.3900    eV        0.000 10.000
                            Buckingham rho  0.33685000    Ang
                            Buckingham C     19.220000    eV*Ang^6
O    c Ti   c Buckingham    Buckingham A     4590.7279    eV        0.000 10.000
                            Buckingham rho  0.26100000    Ang
                            Buckingham C     0.0000000    eV*Ang^6
O    c O    c Buckingham    Buckingham A     1388.7700    eV        0.000 10.000
                            Buckingham rho  0.36262000    Ang
                            Buckingham C     175.00000    eV*Ang^6
 Calling ------OPTIONS------

*  Output for configuration   1                                                *

  Components of energy :

  Interatomic potentials     =         283.74069147 eV
  Monopole - monopole (real) =        -200.67401279 eV
  Monopole - monopole (recip)=        -313.23454466 eV
  Monopole - monopole (total)=        -513.90855745 eV
  Total lattice energy       =        -230.16786598 eV
  Total lattice energy       =          -22207.6806 kJ/(mole unit cells)

  Number of variables =       48

  Maximum number of calculations  =          1000
  Maximum Hessian update interval =            10
  Maximum step size               =   1.000000000
  Maximum parameter tolerance     =   0.000010000
  Maximum function  tolerance     =   0.000010000
  Maximum gradient  tolerance     =   0.001000000
  Maximum gradient  component     =   0.010000000

  Cell parameters to be optimised using strains

  Conjugate gradient optimiser to be used

  Lower half triangular hessian to be used

  Start of bulk optimisation :

 Perform trimming
 Line minimisation2
 ALPHA BEFORE:    1.0000000000000000
  ** Opt : line minimisation
left   ...       0.00000000    -230.16786598
centre ...       0.25000000    -291.31288697
right  ...       0.50000000    -323.60564679

left   ...       0.00000000    -230.16786598
centre ...       0.25000000    -291.31288697
right  ...       0.50000000    -323.60564679
new    ...       0.65481134    -333.87884266

__s__    ...       0.15481134

[...]

 ALPHA AFTER:   0.92605424545865089
 Perform trimming
 Line minimisation2
 ALPHA BEFORE:   0.92605424545865089
  ** Opt : line minimisation
left   ...       0.00000000    -340.24616919
centre ...       0.23151356    -386.54672983
right  ...       0.46302712    -388.34292258

[...]

 ALPHA AFTER:   0.35661421101815116
 Line minimisation2
 ALPHA BEFORE:   0.35661421101815116
  ** Opt : line minimisation
left   ...       0.00000000    -392.10925495
centre ...       0.08915355    -399.51367342
right  ...       0.17830711    -405.09719178

[...]

 ALPHA AFTER:   0.52392859759077870
 Perform trimming
 Line minimisation2
 ALPHA BEFORE:   0.52392859759077870
  ** Opt : line minimisation
left   ...       0.00000000    -475.56730837
centre ...       0.13098215    -475.56730918
right  ...       0.26196430    -475.56730974

[...]

 ALPHA AFTER:   0.31976339154419342
 Line minimisation2
 ALPHA BEFORE:   0.31976339154419342
  ** Opt : line minimisation
left   ...       0.00000000    -475.56731259
centre ...       0.07994085    -475.56731268
right  ...       0.15988170    -475.56731277

left   ...       0.00000000    -475.56731259
centre ...       0.07994085    -475.56731268
right  ...       0.15988170    -475.56731277
new    ...       0.75251711    -475.56731306

__s__    ...       0.59263541

 ALPHA AFTER:   0.75251710892876922

  **** Optimisation achieved ****

  Final energy =    -475.56731306 eV
  Final Gnorm  =       0.00047727

  Components of energy :

  Interatomic potentials     =          65.00975670 eV
  Monopole - monopole (real) =        -237.15349483 eV
  Monopole - monopole (recip)=        -303.42357493 eV
  Monopole - monopole (total)=        -540.57706976 eV
  Total lattice energy       =        -475.56731306 eV
  Total lattice energy       =          -45884.9760 kJ/(mole unit cells)

  Final fractional coordinates of atoms :

   No.  Atomic        x           y          z          Radius
        Label       (Frac)      (Frac)     (Frac)       (Angs)
     1  O     c     0.500000    0.500000    0.750000    0.000000
     2  O     c     0.499907    0.000087    0.750091    0.000000
     3  O     c     0.999905    0.666837    0.583395    0.000000
     4  O     c     0.999918    0.333502    0.916725    0.000000
     5  O     c     0.999885    0.000188    0.250062    0.000000
     6  O     c     0.499907    0.166875    0.083402    0.000000
     7  O     c     0.499901    0.666872    0.083375    0.000000
     8  O     c     0.499874    0.333536    0.416703    0.000000
     9  O     c     0.499876    0.833542    0.416738    0.000000
    10  Sr    c     0.999869    0.500214    0.250065    0.000000
    11  Sr    c     0.999868    0.833493    0.916728    0.000000
    12  Sr    c     0.999881    0.166826    0.583396    0.000000
    13  Ti    c     0.499906    0.666811    0.583386    0.000000
    14  Ti    c     0.499919    0.333475    0.916721    0.000000
    15  Ti    c     0.499875    0.000210    0.250060    0.000000

  Final Cartesian lattice vectors (Angstroms) :

        3.956495   -0.000000    0.000001
       -0.000000    5.539096   -0.791307
        0.000001   -1.582614    8.704289

  Final cell parameters and derivatives :

       a            3.956495 Angstrom     dE/de1(xx)     0.000324 eV/strain
       b            5.595333 Angstrom     dE/de2(yy)     0.000570 eV/strain
       c            8.846994 Angstrom     dE/de3(zz)     0.000011 eV/strain
       alpha      108.435124 Degrees      dE/de4(yz)    -0.000512 eV/strain
       beta        89.999981 Degrees      dE/de5(xz)     0.000078 eV/strain
       gamma       90.000013 Degrees      dE/de6(xy)    -0.000049 eV/strain

  Primitive cell volume =           185.803197 Angs**3

  Density of cell =      4.919944 g/cm**3

  Non-primitive cell volume =           185.803197 Angs**3

  Final internal derivatives :

   No.  Atomic          a             b             c           Radius
        Label          (eV)          (eV)          (eV)        (eV/Angs)
      1 O     c       0.000000      0.000000      0.000000      0.000000
      2 O     c       0.001045      0.004619      0.000207      0.000000
      3 O     c      -0.002630      0.003565      0.000362      0.000000
      4 O     c      -0.003203      0.003994     -0.007073      0.000000
      5 O     c       0.000434      0.000990      0.000675      0.000000
      6 O     c       0.001545      0.001789      0.002636      0.000000
      7 O     c       0.001912      0.006141      0.005017      0.000000
      8 O     c      -0.003478      0.003612     -0.000739      0.000000
      9 O     c      -0.004868      0.000814      0.004303      0.000000
     10 Sr    c      -0.003270      0.000679      0.007325      0.000000
     11 Sr    c      -0.004463      0.003681      0.000212      0.000000
     12 Sr    c      -0.002670      0.002376     -0.000465      0.000000
     13 Ti    c       0.000926      0.001700     -0.006776      0.000000
     14 Ti    c       0.001567     -0.002715      0.002644      0.000000
     15 Ti    c      -0.004418      0.007665      0.000589      0.000000
  Maximum abs         0.004868      0.007665      0.007325      0.000000

  Time to end of optimisation =       0.7730 seconds

 Exiting ------OPTIONS------

  Timing analysis for GULP :

  Task / Subroutine                                          Time (Seconds)
  Calculation of reciprocal space energy and derivatives          0.0949
  Calculation of real space energy and derivatives                0.6615
  Global summation overhead                                       0.0005

  Job Finished at 16:25.09  3rd February   2020