  Job Started  at 16:29.13  3rd February   2020

  Number of CPUs =     1

  Total number of configurations input =      1

*  Input for Configuration =   1                                               *

  Formula = Sr3Ti3O9

  Number of irreducible atoms/shells =      15

  Total number atoms/shells =      15

  Dimensionality = 3               :  Bulk

  Cartesian lattice vectors (Angstroms) :

       12.000000    0.000000    0.000000
        0.000000    4.000000    0.000000
        0.000000    0.000000    4.000000

  Cell parameters (Angstroms/Degrees):

  a =      12.0000    alpha =  90.0000
  b =       4.0000    beta  =  90.0000
  c =       4.0000    gamma =  90.0000

  Initial cell volume =         192.000000 Angs**3

  Temperature of configuration =  0.000     K

  Pressure of configuration =         0.000 GPa

  Fractional coordinates of asymmetric unit :

   No.  Atomic       x           y          z         Charge      Occupancy
        Label      (Frac)      (Frac)     (Frac)        (e)         (Frac)
      1 Sr    c    0.999850    0.000360    0.999990     2.00000    1.000000
      2 Ti    c    0.166710 *  0.500030 *  0.500050 *   4.00000    1.000000
      3 O     c    0.000050 *  0.500680 *  0.500190 *  -2.00000    1.000000
      4 O     c    0.166570 *  0.999870 *  0.499700 *  -2.00000    1.000000
      5 O     c    0.166600 *  0.499850 *  0.999910 *  -2.00000    1.000000
      6 Sr    c    0.333370 *  0.000290 *  0.999980 *   2.00000    1.000000
      7 Ti    c    0.500060 *  0.500190 *  0.500580 *   4.00000    1.000000
      8 O     c    0.333440 *  0.499320 *  0.500160 *  -2.00000    1.000000
      9 O     c    0.500070 *  0.000580 *  0.500650 *  -2.00000    1.000000
     10 O     c    0.500040 *  0.499980 *  0.999500 *  -2.00000    1.000000
     11 Sr    c    0.666980 *  0.000650 *  0.999700 *   2.00000    1.000000
     12 Ti    c    0.833180 *  0.500010 *  0.500730 *   4.00000    1.000000
     13 O     c    0.666770 *  0.499940 *  0.500100 *  -2.00000    1.000000
     14 O     c    0.833490 *  0.000170 *  0.499850 *  -2.00000    1.000000
     15 O     c    0.833340 *  0.499170 *  0.000420 *  -2.00000    1.000000

*  General input information                                                   *

  Species output for all configurations :

  Species    Type    Atomic    Atomic    Charge       Radii (Angs)     Library
                     Number     Mass       (e)     Cova   Ionic  VDW   Symbol
    Sr       Core       38      87.62   2.000000   1.120  0.000  1.670
    Ti       Core       22      47.88   4.000000   1.470  0.000  2.190
    O        Core        8      16.00  -2.000000   0.730  0.000  1.360

  Lattice summation method               =    Ewald          (3-D)
                                         =    Parry          (2-D)
                                         =    Saunders et al (1-D)
  Accuracy factor for lattice sums       =   12.000

  Time limit = Infinity

  Maximum range for interatomic potentials =    100000.000000 Angstroms

  General interatomic potentials :

Atom  Types   Potential      Parameter       Value         Units   Cutoffs(Ang)
  1     2                                                            Min /  Max
O    c Sr   c Buckingham    Buckingham A     1952.3900    eV        0.000 10.000
                            Buckingham rho  0.33685000    Ang
                            Buckingham C     19.220000    eV*Ang^6
O    c Ti   c Buckingham    Buckingham A     4590.7279    eV        0.000 10.000
                            Buckingham rho  0.26100000    Ang
                            Buckingham C     0.0000000    eV*Ang^6
O    c O    c Buckingham    Buckingham A     1388.7700    eV        0.000 10.000
                            Buckingham rho  0.36262000    Ang
                            Buckingham C     175.00000    eV*Ang^6
 Calling ------OPTIONS------

*  Output for configuration   1                                                *

  Components of energy :

  Interatomic potentials     =          59.32167851 eV
  Monopole - monopole (real) =        -234.57426617 eV
  Monopole - monopole (recip)=        -300.12329799 eV
  Monopole - monopole (total)=        -534.69756416 eV
  Total lattice energy       =        -475.37588565 eV
  Total lattice energy       =          -45866.5062 kJ/(mole unit cells)

  Number of variables =       48

  Maximum number of calculations  =          1000
  Maximum Hessian update interval =            10
  Maximum step size               =   0.001000000
  Maximum parameter tolerance     =   0.000010000
  Maximum function  tolerance     =   0.000010000
  Maximum gradient  tolerance     =   0.001000000
  Maximum gradient  component     =   0.010000000

  Cell parameters to be optimised using strains

  Conjugate gradient optimiser to be used

  Lower half triangular hessian to be used

  Minimiser to switch to BFGS with exact hessian
  When gradient norm is less than     0.500000

  Switch max step size to       0.10000000 when gnorm is less than    10.000000

  Start of bulk optimisation :

  ** Hessian calculated **
 Line minimisation2
 ALPHA BEFORE:    1.0000000000000000
  ** Opt : line minimisation
left   ...       0.00000000    -475.37588565
centre ...       0.10000000    -475.41318517
right  ...       0.20000000    -475.44656065

left   ...       0.00000000    -475.37588565
centre ...       0.10000000    -475.41318517
right  ...       0.20000000    -475.44656065
new    ...       0.30000000    -475.47596812

__s__    ...       0.10000000

[...]

 ALPHA AFTER:   0.50000000000000000
 Line minimisation2
 ALPHA BEFORE:    1.0459011235009852
  ** Opt : line minimisation
left   ...       0.00000000    -475.52270119
centre ...       0.10000000    -475.53145810
right  ...       0.20000000    -475.53927204

[...]

 ALPHA AFTER:   0.30000000000000004
  ** Hessian calculated **
 Line minimisation2
 ALPHA BEFORE:    1.0000000000000000
  ** Opt : line minimisation
left   ...       0.00000000    -475.56731768
centre ...       0.10000000    -475.56731779
right  ...       0.20000000    -475.56731789

[...]

 ALPHA AFTER:   0.30000000000000004
 Line minimisation2
 ALPHA BEFORE:   0.43521500872803420
  ** Opt : line minimisation
left   ...       0.00000000    -475.56731797
centre ...       0.10000000    -475.56731802
right  ...       0.20000000    -475.56731807

left   ...       0.00000000    -475.56731797
centre ...       0.10000000    -475.56731802
right  ...       0.20000000    -475.56731807
new    ...       0.30000000    -475.56731811

__s__    ...       0.10000000

 ALPHA AFTER:   0.30000000000000004

  **** Optimisation achieved ****

  Final energy =    -475.56731811 eV
  Final Gnorm  =       0.00036027

  Components of energy :

  Interatomic potentials     =          65.00501728 eV
  Monopole - monopole (real) =        -237.15141938 eV
  Monopole - monopole (recip)=        -303.42091601 eV
  Monopole - monopole (total)=        -540.57233539 eV
  Total lattice energy       =        -475.56731811 eV
  Total lattice energy       =          -45884.9765 kJ/(mole unit cells)

  Final fractional coordinates of atoms :

   No.  Atomic        x           y          z          Radius
        Label       (Frac)      (Frac)     (Frac)       (Angs)
     1  Sr    c     0.999850    0.000360    0.999990    0.000000
     2  Ti    c     0.166517    0.500360    0.499990    0.000000
     3  O     c     0.999850    0.500360    0.499990    0.000000
     4  O     c     0.166517    0.000360    0.499990    0.000000
     5  O     c     0.166517    0.500360    0.999990    0.000000
     6  Sr    c     0.333183    0.000360    0.999990    0.000000
     7  Ti    c     0.499850    0.500360    0.499990    0.000000
     8  O     c     0.333184    0.500359    0.499990    0.000000
     9  O     c     0.499850    0.000360    0.499991    0.000000
    10  O     c     0.499850    0.500360    0.999990    0.000000
    11  Sr    c     0.666517    0.000360    0.999990    0.000000
    12  Ti    c     0.833183    0.500360    0.499991    0.000000
    13  O     c     0.666517    0.500360    0.499990    0.000000
    14  O     c     0.833184    0.000360    0.499990    0.000000
    15  O     c     0.833183    0.500359    0.999990    0.000000

  Final Cartesian lattice vectors (Angstroms) :

       11.869590   -0.000000   -0.000000
       -0.000000    3.956530    0.000000
       -0.000000    0.000000    3.956530

  Final cell parameters and derivatives :

       a           11.869590 Angstrom     dE/de1(xx)     0.009818 eV/strain
       b            3.956530 Angstrom     dE/de2(yy)     0.009817 eV/strain
       c            3.956530 Angstrom     dE/de3(zz)     0.009815 eV/strain
       alpha       90.000000 Degrees      dE/de4(yz)     0.000001 eV/strain
       beta        90.000000 Degrees      dE/de5(xz)    -0.000000 eV/strain
       gamma       90.000000 Degrees      dE/de6(xy)    -0.000000 eV/strain

  Primitive cell volume =           185.808082 Angs**3

  Density of cell =      4.919814 g/cm**3

  Non-primitive cell volume =           185.808082 Angs**3

  Final internal derivatives :

   No.  Atomic          a             b             c           Radius
        Label          (eV)          (eV)          (eV)        (eV/Angs)
      1 Sr    c       0.000000      0.000000      0.000000      0.000000
      2 Ti    c       0.001158      0.000004      0.000047      0.000000
      3 O     c       0.000469      0.000132     -0.000069      0.000000
      4 O     c      -0.000786     -0.000025     -0.000058      0.000000
      5 O     c      -0.000719     -0.000014     -0.000001      0.000000
      6 Sr    c       0.000157     -0.000010     -0.000017      0.000000
      7 Ti    c       0.000462      0.000124      0.000099      0.000000
      8 O     c       0.000151     -0.000222      0.000047      0.000000
      9 O     c      -0.000289      0.000249      0.000145      0.000000
     10 O     c      -0.000327     -0.000154     -0.000259      0.000000
     11 Sr    c       0.000441      0.000022     -0.000088      0.000000
     12 Ti    c      -0.002054      0.000048      0.000329      0.000000
     13 O     c      -0.000104     -0.000113     -0.000074      0.000000
     14 O     c       0.001077      0.000126     -0.000228      0.000000
     15 O     c       0.000812     -0.000200      0.000178      0.000000
  Maximum abs         0.002054      0.000249      0.000329      0.000000

  Time to end of optimisation =       0.0714 seconds

 Exiting ------OPTIONS------

  Timing analysis for GULP :

  Task / Subroutine                                          Time (Seconds)
  Calculation of reciprocal space energy and derivatives          0.0080
  Calculation of real space energy and derivatives                0.0550
  Calculation of matrix inversion                                 0.0001

  Job Finished at 16:29.13  3rd February   2020