  Job Started  at 13:26.39 21st February   2020

  Number of CPUs =     1

  Total number of configurations input =      1

*  Input for Configuration =   1                                               *

  Formula = O9Sr3Ti3

  Number of irreducible atoms/shells =      15

  Total number atoms/shells =      15

  Dimensionality = 3               :  Bulk

  Cartesian lattice vectors (Angstroms) :

        4.000000    0.000000    0.000000
        0.000000    6.000000    0.000000
        0.000000    0.000000   10.000000

  Cell parameters (Angstroms/Degrees):

  a =       4.0000    alpha =  90.0000
  b =       6.0000    beta  =  90.0000
  c =      10.0000    gamma =  90.0000

  Initial cell volume =         240.000000 Angs**3

  Temperature of configuration =  0.000     K

  Pressure of configuration =         0.000 GPa

  Fractional coordinates of asymmetric unit :

   No.  Atomic       x           y          z         Charge      Occupancy
        Label      (Frac)      (Frac)     (Frac)        (e)         (Frac)
      1 O     c    0.000000    0.333330    0.800000    -2.00000    1.000000
      2 O     c    0.000000 *  0.000000 *  0.800000 *  -2.00000    1.000000
      3 O     c    0.500000 *  0.666670 *  0.600000 *  -2.00000    1.000000
      4 O     c    0.000000 *  0.666670 *  0.600000 *  -2.00000    1.000000
      5 O     c    0.000000 *  0.333330 *  0.000000 *  -2.00000    1.000000
      6 O     c    0.000000 *  0.666670 *  0.800000 *  -2.00000    1.000000
      7 O     c    0.000000 *  0.000000 *  0.200000 *  -2.00000    1.000000
      8 O     c    0.500000 *  0.333330 *  0.200000 *  -2.00000    1.000000
      9 O     c    0.000000 *  0.000000 *  0.000000 *  -2.00000    1.000000
     10 Sr    c    0.750000 *  0.166670 *  0.900000 *   2.00000    1.000000
     11 Sr    c    0.250000 *  0.166670 *  0.900000 *   2.00000    1.000000
     12 Sr    c    0.250000 *  0.166670 *  0.100000 *   2.00000    1.000000
     13 Ti    c    0.750000 *  0.166670 *  0.700000 *   4.00000    1.000000
     14 Ti    c    0.250000 *  0.166670 *  0.500000 *   4.00000    1.000000
     15 Ti    c    0.250000 *  0.166670 *  0.700000 *   4.00000    1.000000

*  General input information                                                   *

  Species output for all configurations :

  Species    Type    Atomic    Atomic    Charge       Radii (Angs)     Library
                     Number     Mass       (e)     Cova   Ionic  VDW   Symbol
    O        Core        8      16.00  -2.000000   0.730  0.000  1.360
    Sr       Core       38      87.62   2.000000   1.120  0.000  1.670
    Ti       Core       22      47.88   4.000000   1.470  0.000  2.190

  Lattice summation method               =    Ewald          (3-D)
                                         =    Parry          (2-D)
                                         =    Saunders et al (1-D)
  Accuracy factor for lattice sums       =   12.000

  Time limit = Infinity

  Maximum range for interatomic potentials =    100000.000000 Angstroms

  General interatomic potentials :

Atom  Types   Potential      Parameter       Value         Units   Cutoffs(Ang)
  1     2                                                            Min /  Max
O    c Sr   c Buckingham    Buckingham A     1952.3900    eV        0.000 10.000
                            Buckingham rho  0.33685000    Ang
                            Buckingham C     19.220000    eV*Ang^6
O    c Ti   c Buckingham    Buckingham A     4590.7279    eV        0.000 10.000
                            Buckingham rho  0.26100000    Ang
                            Buckingham C     0.0000000    eV*Ang^6
O    c O    c Buckingham    Buckingham A     1388.7700    eV        0.000 10.000
                            Buckingham rho  0.36262000    Ang
                            Buckingham C     175.00000    eV*Ang^6
 Calling ------OPTIONS------

*  Output for configuration   1                                                *

  Components of energy :

  Interatomic potentials     =         184.55920138 eV
  Monopole - monopole (real) =          -3.58671899 eV
  Monopole - monopole (recip)=        -195.13406381 eV
  Monopole - monopole (total)=        -198.72078279 eV
  Total lattice energy       =         -14.16158142 eV
  Total lattice energy       =           -1366.3761 kJ/(mole unit cells)

  Number of variables =       48

  Maximum number of calculations  =          1000
  Maximum Hessian update interval =            10
  Maximum step size               =   1.000000000
  Maximum parameter tolerance     =   0.000010000
  Maximum function  tolerance     =   0.000010000
  Maximum gradient  tolerance     =   0.001000000
  Maximum gradient  component     =   0.010000000

  Cell parameters to be optimised using strains

  Conjugate gradient optimiser to be used

  Lower half triangular hessian to be used

  Minimiser to switch to BFGS with exact hessian
  When gradient norm is less than     0.100000

  Start of bulk optimisation :

 Perform trimming
 ALPHA BEFORE:    1.0000000000000000
 XC BEFORE:    0.0000000000000000
  ** Opt : line minimisation
left   ...       0.00000000     -14.16158142
centre ...       0.25000000     -98.43534940
right  ...       0.50000000    -153.15380047

left   ...       0.00000000     -14.16158142
centre ...       0.25000000     -98.43534940
right  ...       0.50000000    -153.15380047
new    ...       0.83784778    -201.61286615

__s__    ...       0.33784778

[...]

 ALPHA AFTER:    1.1926492624666976
 XC AFTER:    6.4807103518356912E-004
 SANITY CHECK:    1.1926492624666976
 DIRECTION dim            1  value    5.4338778011164476E-004
 DIRECTION dim            2  value    6.7724055639842955E-003
 DIRECTION dim            3  value   -9.3878607970231703E-002
 DIRECTION dim            4  value   -7.7560731471629902E-004
 DIRECTION dim            5  value    2.5078038636520886E-005
 DIRECTION dim            6  value   -9.5476363559937327E-003
 DIRECTION dim            7  value    7.7560731471629869E-004
 DIRECTION dim            8  value   -2.5292025282159285E-005
 DIRECTION dim            9  value   -3.1181022257952766E-002
 DIRECTION dim           10  value   -5.7275449923033803E-003
 DIRECTION dim           11  value    3.2896444826765868E-002
 DIRECTION dim           12  value    6.3321122618242185E-003
 DIRECTION dim           13  value    1.8517125257813924E-004
 DIRECTION dim           14  value   -2.6835739771005907E-005
 DIRECTION dim           15  value   -9.0491500226784106E-005
 DIRECTION dim           16  value   -5.3689823769242423E-003
 DIRECTION dim           17  value   -9.9723159200939739E-003
 DIRECTION dim           18  value    5.8003908654003455E-002
 DIRECTION dim           19  value    5.3698558226651779E-003
 DIRECTION dim           20  value    8.8085020491927221E-003
 DIRECTION dim           21  value    3.8203635348996075E-002
 DIRECTION dim           22  value   -5.7266602543329260E-003
 DIRECTION dim           23  value   -3.1728651291542370E-002
 DIRECTION dim           24  value   -8.7949602290413667E-003
 DIRECTION dim           25  value   -2.2727950924453677E-002
 DIRECTION dim           26  value   -1.8046698885694161E-006
 DIRECTION dim           27  value    6.9732041735660902E-002
 DIRECTION dim           28  value    2.2727950924453667E-002
 DIRECTION dim           29  value   -1.8046698885680714E-006
 DIRECTION dim           30  value    6.1503611092305101E-002
 DIRECTION dim           31  value    1.1145542802030199E-002
 DIRECTION dim           32  value   -1.8046698885801480E-006
 DIRECTION dim           33  value    2.2712545254053303E-002
 DIRECTION dim           34  value    3.9990738394522175E-003
 DIRECTION dim           35  value   -1.0562211986806113E-006
 DIRECTION dim           36  value    3.5379574003281705E-002
 DIRECTION dim           37  value   -9.6417314265995224E-004
 DIRECTION dim           38  value   -1.4501745013836407E-007
 DIRECTION dim           39  value  -0.12441484908058112
 DIRECTION dim           40  value   -3.9990738394522158E-003
 DIRECTION dim           41  value   -1.0562211986799586E-006
 DIRECTION dim           42  value    6.9764736315198861E-002
 DIRECTION dim           43  value    7.7190174055225505E-002
 DIRECTION dim           44  value   -1.5675670698515522E-002
 DIRECTION dim           45  value    5.3239205532630590E-002
 DIRECTION dim           46  value   -3.8767272875376706E-004
 DIRECTION dim           47  value    3.2766261845364126E-003
 DIRECTION dim           48  value    2.7184522604056906E-003
 Perform trimming
 ALPHA BEFORE:    1.1926492624666976
 XC BEFORE:    6.4807103518356912E-004
  ** Opt : line minimisation
left   ...       0.00000000    -223.34143131
centre ...       0.29816232    -268.89893976
right  ...       0.59632463    -254.59452414

[...]

 ALPHA AFTER:   0.29356986221965864
 XC AFTER:   -5.6131738776095423E-003
 SANITY CHECK:   0.29356986221965864
 DIRECTION dim            1  value   -4.9482145593652646E-002
 DIRECTION dim            2  value   -7.3435321195930173E-002
 DIRECTION dim            3  value  -0.16253176325183766
 DIRECTION dim            4  value    1.0558520937676054E-003
 DIRECTION dim            5  value   -8.4524373265018968E-003
 DIRECTION dim            6  value    3.3396079926675828E-002
 DIRECTION dim            7  value    1.8847574671937194E-003
 DIRECTION dim            8  value   -2.8246019768345298E-002
 DIRECTION dim            9  value  -0.11573613788510854
 DIRECTION dim           10  value    1.4487007193864549E-002
 DIRECTION dim           11  value    5.1565165964877438E-002
 DIRECTION dim           12  value   0.13515621394276844
 DIRECTION dim           13  value    4.4746364519488132E-003
 DIRECTION dim           14  value    5.6245096248406463E-002
 DIRECTION dim           15  value    1.5068499577361632E-003
 DIRECTION dim           16  value    1.8605348057206362E-002
 DIRECTION dim           17  value    4.4110864945577130E-002
 DIRECTION dim           18  value   0.10723454862611766
 DIRECTION dim           19  value   -7.6638557887920298E-003
 DIRECTION dim           20  value   -3.0293833553858854E-002
 DIRECTION dim           21  value   0.13966902543667525
 DIRECTION dim           22  value    9.6399627825430271E-003
 DIRECTION dim           23  value   -3.1923041204335707E-002
 DIRECTION dim           24  value    3.1622605980372004E-002
 DIRECTION dim           25  value   -3.2219807959876397E-002
 DIRECTION dim           26  value    7.6399460924985218E-003
 DIRECTION dim           27  value    4.5814138706424617E-002
 DIRECTION dim           28  value    3.1372050870762884E-002
 DIRECTION dim           29  value    1.8116748014977202E-002
 DIRECTION dim           30  value   -5.6504823399888056E-002
 DIRECTION dim           31  value   -2.7154698846235240E-002
 DIRECTION dim           32  value   -2.0722124540026983E-002
 DIRECTION dim           33  value   -3.5873349344485841E-002
 DIRECTION dim           34  value   -3.0942756675250975E-002
 DIRECTION dim           35  value    8.5818599453101135E-002
 DIRECTION dim           36  value  -0.12853583373976826
 DIRECTION dim           37  value   -6.5592252884856383E-003
[...]
 DIRECTION dim           18  value    1.8420646319387175E-003
 DIRECTION dim           19  value   -9.7842227201799174E-004
 DIRECTION dim           20  value   -6.0931448599912507E-004
 DIRECTION dim           21  value    1.8170372721762809E-004
 DIRECTION dim           22  value   -2.9307007908920030E-003
 DIRECTION dim           23  value   -2.7839762583374097E-003
 DIRECTION dim           24  value    2.3479804134816386E-004
 DIRECTION dim           25  value    1.4286263581547406E-003
 DIRECTION dim           26  value   -5.3498464486185864E-004
 DIRECTION dim           27  value    1.1420887321472914E-003
 DIRECTION dim           28  value   -5.2937231527914195E-003
 DIRECTION dim           29  value   -3.7258015683608913E-003
 DIRECTION dim           30  value   -2.8891844003472462E-003
 DIRECTION dim           31  value    8.5442115889299366E-004
 DIRECTION dim           32  value   -5.8069747912348505E-004
 DIRECTION dim           33  value    3.8069669527987363E-004
 DIRECTION dim           34  value    2.5583610241160025E-003
 DIRECTION dim           35  value   -7.7190318747503365E-004
 DIRECTION dim           36  value    1.8668480770537375E-003
 DIRECTION dim           37  value   -3.6404517587440982E-003
 DIRECTION dim           38  value   -4.0202286766189495E-004
 DIRECTION dim           39  value   -2.1257720025648396E-003
 DIRECTION dim           40  value    1.1235161816097595E-003
 DIRECTION dim           41  value   -2.2434197218467240E-005
 DIRECTION dim           42  value    1.6966496224927580E-003
 DIRECTION dim           43  value    7.8206507245790488E-004
 DIRECTION dim           44  value   -7.9735939266262928E-004
 DIRECTION dim           45  value    5.7467376361554584E-004
 DIRECTION dim           46  value    5.7646021398292794E-004
 DIRECTION dim           47  value   -1.4335280549015046E-004
 DIRECTION dim           48  value    1.0863331661197921E-003
  ** Hessian calculated **
 ALPHA BEFORE:    1.0000000000000000
 XC BEFORE:    5.5550278342995488E-002
  ** Opt : line minimisation
left   ...       0.00000000    -463.20360814
centre ...       0.25000000    -463.21512775
right  ...       0.50000000    -463.22628232

[...]

 ALPHA AFTER:   0.53703703703703709
 XC AFTER:    8.3970261413386010E-002
 SANITY CHECK:   0.53703703703703898
 DIRECTION dim            1  value   -8.7474492660591352E-004
 DIRECTION dim            2  value   -5.3370678369613143E-004
 DIRECTION dim            3  value   -7.8961578388466331E-005
 DIRECTION dim            4  value   -1.1491171945101116E-003
 DIRECTION dim            5  value   -6.9881279795128647E-004
 DIRECTION dim            6  value   -1.0378936769881614E-004
 DIRECTION dim            7  value   -1.2964845214760649E-003
 DIRECTION dim            8  value   -7.7226241137441274E-004
 DIRECTION dim            9  value   -1.0468083409948837E-004
 DIRECTION dim           10  value   -9.3230433431351753E-004
 DIRECTION dim           11  value   -6.3086783135420717E-004
 DIRECTION dim           12  value   -1.4907328974339971E-004
 DIRECTION dim           13  value   -2.5292865555958993E-004
 DIRECTION dim           14  value   -2.3053145685649105E-004
 DIRECTION dim           15  value   -9.0915267949052018E-005
 DIRECTION dim           16  value   -1.3931821473018862E-003
 DIRECTION dim           17  value   -8.1793109005423516E-004
 DIRECTION dim           18  value   -1.0690872601492189E-004
 DIRECTION dim           19  value   -1.4341596548399498E-003
 DIRECTION dim           20  value   -8.4413639312174501E-004
 DIRECTION dim           21  value   -1.1220447024687905E-004
 DIRECTION dim           22  value   -1.2921897870543116E-004
 DIRECTION dim           23  value   -1.4417194319738363E-004
 DIRECTION dim           24  value   -6.7518487266258429E-005
 DIRECTION dim           25  value   -5.0710085798671783E-004
 DIRECTION dim           26  value   -3.8846833700422801E-004
 DIRECTION dim           27  value   -1.2124773705344794E-004
 DIRECTION dim           28  value    5.6504006699314084E-006
 DIRECTION dim           29  value   -2.9455306753263963E-005
 DIRECTION dim           30  value   -2.9960841667768068E-005
 DIRECTION dim           31  value   -1.3165229335214575E-003
 DIRECTION dim           32  value   -8.1899465500290768E-004
 DIRECTION dim           33  value   -1.4622129323677349E-004
 DIRECTION dim           34  value   -1.2954673780264598E-003
 DIRECTION dim           35  value   -7.6051628369849084E-004
 DIRECTION dim           36  value   -9.9957186013385269E-005
 DIRECTION dim           37  value   -1.2185582165872269E-003
 DIRECTION dim           38  value   -7.4411494883784644E-004
 DIRECTION dim           39  value   -1.1281922034054123E-004
 DIRECTION dim           40  value   -3.0124021262338801E-004
 DIRECTION dim           41  value   -2.2404786536454237E-004
 DIRECTION dim           42  value   -6.0234669728689715E-005
 DIRECTION dim           43  value   -7.4154177453000314E-005
 DIRECTION dim           44  value   -2.2095142071580579E-005
 DIRECTION dim           45  value    9.0625232328506619E-005
 DIRECTION dim           46  value   -1.0650677956655520E-004
 DIRECTION dim           47  value   -6.9021332785787026E-004
 DIRECTION dim           48  value   -1.1707319184854808E-004
 ALPHA BEFORE:   0.35802469135802473
 XC BEFORE:    8.3970261413386010E-002
  ** Opt : line minimisation
left   ...       0.00000000    -465.37975090
centre ...       0.08950617    -465.37958889
right  ...      -0.08950617    -465.37973763

[...]

 ALPHA AFTER:   -3.3011979937432115E-003
 XC AFTER:    8.3970261413386010E-002
 SANITY CHECK:   -0.0000000000000000
 DIRECTION dim            1  value   -1.1589237368111839E-004
 DIRECTION dim            2  value   -7.7656072308575566E-005
 DIRECTION dim            3  value    1.6939050711711636E-005
 DIRECTION dim            4  value   -6.5043479883128210E-005
 DIRECTION dim            5  value   -7.4288601645111882E-005
 DIRECTION dim            6  value    3.8320213764165120E-005
 DIRECTION dim            7  value   -4.8659711541333592E-006
 DIRECTION dim            8  value   -6.1755757840286111E-005
 DIRECTION dim            9  value    2.2323535239635462E-006
 DIRECTION dim           10  value    2.0951014018360430E-005
 DIRECTION dim           11  value   -1.8855415685513011E-004
 DIRECTION dim           12  value    9.4552547063245438E-006
 DIRECTION dim           13  value   -5.3141533254195837E-005
 DIRECTION dim           14  value    2.4376661352150126E-004
 DIRECTION dim           15  value   -1.7361295853161883E-005
 DIRECTION dim           16  value    4.0801619883514024E-005
 DIRECTION dim           17  value   -5.9444685241861648E-005
 DIRECTION dim           18  value   -1.0473225591882944E-005
 DIRECTION dim           19  value    7.9956284323891591E-006
 DIRECTION dim           20  value   -7.2358297777329528E-005
 DIRECTION dim           21  value   -1.3483696872173021E-005
 DIRECTION dim           22  value   -2.3879014943709975E-005
 DIRECTION dim           23  value   -1.4245378169782671E-004
 DIRECTION dim           24  value   -4.3685146519471180E-006
 DIRECTION dim           25  value   -1.4828736342393801E-004
 DIRECTION dim           26  value    2.6522060231370036E-005
 DIRECTION dim           27  value    2.3378796254692144E-005
 DIRECTION dim           28  value   -1.6114198504945130E-004
 DIRECTION dim           29  value   -6.8309725604214543E-005
 DIRECTION dim           30  value    2.2402397983409839E-005
 DIRECTION dim           31  value   -3.5963696664960442E-005
 DIRECTION dim           32  value    4.0842327776889391E-005
 DIRECTION dim           33  value    1.8408905778537932E-005
 DIRECTION dim           34  value    8.6884885969479032E-005
 DIRECTION dim           35  value    4.8210531320812265E-005
 DIRECTION dim           36  value   -3.5747521815167588E-005
 DIRECTION dim           37  value   -4.4252166837024470E-005
 DIRECTION dim           38  value    1.6700706261920905E-004
 DIRECTION dim           39  value   -2.2509470989588040E-005
 DIRECTION dim           40  value    1.2803126582171915E-004
 DIRECTION dim           41  value   -1.8005295153642489E-004
 DIRECTION dim           42  value   -1.3009616715875430E-005
 DIRECTION dim           43  value    4.5127533989409530E-004
 DIRECTION dim           44  value    2.1928599042991348E-004
 DIRECTION dim           45  value    5.9974166609921234E-004
 DIRECTION dim           46  value    4.5010181382860803E-004
 DIRECTION dim           47  value   -1.3902583252244885E-003
 DIRECTION dim           48  value    5.7087338952766247E-004
  ** Hessian calculated **
 ALPHA BEFORE:    1.0000000000000000
 XC BEFORE:    8.3970261413386010E-002
  ** Opt : line minimisation
left   ...       0.00000000    -465.37975090
centre ...       0.25000000    -465.37972604
right  ...      -0.25000000    -465.37950462

[...]

left   ...      -0.00778654    -465.37974468
centre ...       0.00000000    -465.37975090
right  ...       0.01268860    -465.37958584
new    ...      -0.00330120    -465.37974828

__s__    ...       0.00448534

 ALPHA AFTER:   -3.3011979937432115E-003
 XC AFTER:    8.3970261413386010E-002
 SANITY CHECK:   -0.0000000000000000
 DIRECTION dim            1  value   -1.1589237368111839E-004
 DIRECTION dim            2  value   -7.7656072308575566E-005
 DIRECTION dim            3  value    1.6939050711711636E-005
 DIRECTION dim            4  value   -6.5043479883128210E-005
 DIRECTION dim            5  value   -7.4288601645111882E-005
 DIRECTION dim            6  value    3.8320213764165120E-005
 DIRECTION dim            7  value   -4.8659711541333592E-006
 DIRECTION dim            8  value   -6.1755757840286111E-005
 DIRECTION dim            9  value    2.2323535239635462E-006
 DIRECTION dim           10  value    2.0951014018360430E-005
 DIRECTION dim           11  value   -1.8855415685513011E-004
 DIRECTION dim           12  value    9.4552547063245438E-006
 DIRECTION dim           13  value   -5.3141533254195837E-005
 DIRECTION dim           14  value    2.4376661352150126E-004
 DIRECTION dim           15  value   -1.7361295853161883E-005
 DIRECTION dim           16  value    4.0801619883514024E-005
 DIRECTION dim           17  value   -5.9444685241861648E-005
 DIRECTION dim           18  value   -1.0473225591882944E-005
 DIRECTION dim           19  value    7.9956284323891591E-006
 DIRECTION dim           20  value   -7.2358297777329528E-005
 DIRECTION dim           21  value   -1.3483696872173021E-005
 DIRECTION dim           22  value   -2.3879014943709975E-005
 DIRECTION dim           23  value   -1.4245378169782671E-004
 DIRECTION dim           24  value   -4.3685146519471180E-006
 DIRECTION dim           25  value   -1.4828736342393801E-004
 DIRECTION dim           26  value    2.6522060231370036E-005
 DIRECTION dim           27  value    2.3378796254692144E-005
 DIRECTION dim           28  value   -1.6114198504945130E-004
 DIRECTION dim           29  value   -6.8309725604214543E-005
 DIRECTION dim           30  value    2.2402397983409839E-005
 DIRECTION dim           31  value   -3.5963696664960442E-005
 DIRECTION dim           32  value    4.0842327776889391E-005
 DIRECTION dim           33  value    1.8408905778537932E-005
 DIRECTION dim           34  value    8.6884885969479032E-005
 DIRECTION dim           35  value    4.8210531320812265E-005
 DIRECTION dim           36  value   -3.5747521815167588E-005
 DIRECTION dim           37  value   -4.4252166837024470E-005
 DIRECTION dim           38  value    1.6700706261920905E-004
 DIRECTION dim           39  value   -2.2509470989588040E-005
 DIRECTION dim           40  value    1.2803126582171915E-004
 DIRECTION dim           41  value   -1.8005295153642489E-004
 DIRECTION dim           42  value   -1.3009616715875430E-005
 DIRECTION dim           43  value    4.5127533989409530E-004
 DIRECTION dim           44  value    2.1928599042991348E-004
 DIRECTION dim           45  value    5.9974166609921234E-004
 DIRECTION dim           46  value    4.5010181382860803E-004
 DIRECTION dim           47  value   -1.3902583252244885E-003
 DIRECTION dim           48  value    5.7087338952766247E-004

  **** Conditions for a minimum have not been satisfied. However ****
  **** no lower point can be found - treat results with caution  ****
  **** unless gradient norm is small (less than 0.1)             ****

  Final energy =    -465.37975090 eV
  Final Gnorm  =       0.02941926

  Components of energy :

  Interatomic potentials     =          71.96940969 eV
  Monopole - monopole (real) =        -280.65263771 eV
  Monopole - monopole (recip)=        -256.69652288 eV
  Monopole - monopole (total)=        -537.34916059 eV
  Total lattice energy       =        -465.37975090 eV
  Total lattice energy       =          -44902.0320 kJ/(mole unit cells)

  Final fractional coordinates of atoms :

   No.  Atomic        x           y          z          Radius
        Label       (Frac)      (Frac)     (Frac)       (Angs)
     1  O     c     0.000000    0.333330    0.800000    0.000000
     2  O     c     0.083970    0.197184    0.621316    0.000000
     3  O     c     0.497779    0.344219    0.561352    0.000000
     4  O     c     0.996154    0.527135    0.495123    0.000000
     5  O     c     0.944434    0.706135    0.200100    0.000000
     6  O     c     0.311155    0.946514    0.757184    0.000000
     7  O     c     0.647483    0.802227    0.444716    0.000000
     8  O     c     0.242895    0.074011    0.418783    0.000000
     9  O     c     0.878275    0.460437    0.987569    0.000000
    10  Sr    c     0.880543    0.060190    0.086148    0.000000
    11  Sr    c     0.885141    0.858007    0.882023    0.000000
    12  Sr    c     0.049055    0.361591    0.303297    0.000000
    13  Ti    c     0.619456    0.320004    0.476555    0.000000
    14  Ti    c     0.149364    0.131855    0.523148    0.000000
    15  Ti    c     0.180120    0.358421    0.734607    0.000000

  Final Cartesian lattice vectors (Angstroms) :

        5.776848   -0.551571   -0.907290
       -0.827357    3.315217   -0.619634
       -2.268225   -1.032723   16.997361

  Final cell parameters and derivatives :

       a            5.873617 Angstrom     dE/de1(xx)    -0.196395 eV/strain
       b            3.472626 Angstrom     dE/de2(yy)    -0.162921 eV/strain
       c           17.179105 Angstrom     dE/de3(zz)    -0.438782 eV/strain
       alpha      101.681954 Degrees      dE/de4(yz)    -0.071482 eV/strain
       beta       106.084097 Degrees      dE/de5(xz)     0.223147 eV/strain
       gamma      107.242310 Degrees      dE/de6(xy)    -0.096098 eV/strain

  Primitive cell volume =           305.698775 Angs**3

  Density of cell =      2.990334 g/cm**3

  Non-primitive cell volume =           305.698775 Angs**3

  Final internal derivatives :

   No.  Atomic          a             b             c           Radius
        Label          (eV)          (eV)          (eV)        (eV/Angs)
      1 O     c       0.000000      0.000000      0.000000      0.000000
      2 O     c       0.085218      0.012427     -0.372007      0.000000
      3 O     c       0.100480      0.004686     -0.597048      0.000000
      4 O     c       0.005213      0.030488     -0.020430      0.000000
      5 O     c      -0.003372      0.019439     -0.049196      0.000000
      6 O     c       0.043679     -0.106043      0.126287      0.000000
      7 O     c      -0.038863      0.037965      0.075246      0.000000
      8 O     c      -0.006033      0.012474      0.125408      0.000000
      9 O     c       0.004783      0.013838      0.023903      0.000000
     10 Sr    c       0.025278     -0.002491     -0.121017      0.000000
     11 Sr    c       0.041024      0.005958     -0.108799      0.000000
     12 Sr    c       0.005471     -0.004556     -0.088375      0.000000
     13 Ti    c      -0.182284     -0.026859      0.766249      0.000000
     14 Ti    c       0.102393     -0.057029      0.482207      0.000000
     15 Ti    c      -0.227948      0.067179      0.375223      0.000000
  Maximum abs         0.227948      0.106043      0.766249      0.000000

  Time to end of optimisation =       3.2962 seconds

 Exiting ------OPTIONS------

  Timing analysis for GULP :

  Task / Subroutine                                          Time (Seconds)
  Calculation of reciprocal space energy and derivatives          0.1640
  Calculation of real space energy and derivatives                3.0855
  Calculation and manipulation of Hessian matrix                  0.0002
  Calculation of matrix inversion                                 0.0009
  Global summation overhead                                       0.0010

  Job Finished at 13:26.42 21st February   2020