  Job Started  at 13:26.39 21st February   2020

  Number of CPUs =     1

  Total number of configurations input =      1

*  Input for Configuration =   1                                               *

  Formula = O9Sr3Ti3

  Number of irreducible atoms/shells =      15

  Total number atoms/shells =      15

  Dimensionality = 3               :  Bulk

  Cartesian lattice vectors (Angstroms) :

        4.000000    0.000000    0.000000
        0.000000    4.000000    0.000000
        0.000000    0.000000    8.000000

  Cell parameters (Angstroms/Degrees):

  a =       4.0000    alpha =  90.0000
  b =       4.0000    beta  =  90.0000
  c =       8.0000    gamma =  90.0000

  Initial cell volume =         128.000000 Angs**3

  Temperature of configuration =  0.000     K

  Pressure of configuration =         0.000 GPa

  Fractional coordinates of asymmetric unit :

   No.  Atomic       x           y          z         Charge      Occupancy
        Label      (Frac)      (Frac)     (Frac)        (e)         (Frac)
      1 O     c    0.000000    0.500000    0.250000    -2.00000    1.000000
      2 O     c    0.500000 *  0.500000 *  0.250000 *  -2.00000    1.000000
      3 O     c    0.000000 *  0.500000 *  0.500000 *  -2.00000    1.000000
      4 O     c    0.500000 *  0.000000 *  0.500000 *  -2.00000    1.000000
      5 O     c    0.500000 *  0.500000 *  0.750000 *  -2.00000    1.000000
      6 O     c    0.000000 *  0.000000 *  0.000000 *  -2.00000    1.000000
      7 O     c    0.000000 *  0.000000 *  0.500000 *  -2.00000    1.000000
      8 O     c    0.500000 *  0.000000 *  0.000000 *  -2.00000    1.000000
      9 O     c    0.000000 *  0.500000 *  0.750000 *  -2.00000    1.000000
     10 Sr    c    0.750000 *  0.250000 *  0.375000 *   2.00000    1.000000
     11 Sr    c    0.750000 *  0.750000 *  0.875000 *   2.00000    1.000000
     12 Sr    c    0.750000 *  0.750000 *  0.125000 *   2.00000    1.000000
     13 Ti    c    0.750000 *  0.250000 *  0.875000 *   4.00000    1.000000
     14 Ti    c    0.250000 *  0.250000 *  0.125000 *   4.00000    1.000000
     15 Ti    c    0.250000 *  0.750000 *  0.125000 *   4.00000    1.000000

*  General input information                                                   *

  Species output for all configurations :

  Species    Type    Atomic    Atomic    Charge       Radii (Angs)     Library
                     Number     Mass       (e)     Cova   Ionic  VDW   Symbol
    O        Core        8      16.00  -2.000000   0.730  0.000  1.360
    Sr       Core       38      87.62   2.000000   1.120  0.000  1.670
    Ti       Core       22      47.88   4.000000   1.470  0.000  2.190

  Lattice summation method               =    Ewald          (3-D)
                                         =    Parry          (2-D)
                                         =    Saunders et al (1-D)
  Accuracy factor for lattice sums       =   12.000

  Time limit = Infinity

  Maximum range for interatomic potentials =    100000.000000 Angstroms

  General interatomic potentials :

Atom  Types   Potential      Parameter       Value         Units   Cutoffs(Ang)
  1     2                                                            Min /  Max
O    c Sr   c Buckingham    Buckingham A     1952.3900    eV        0.000 10.000
                            Buckingham rho  0.33685000    Ang
                            Buckingham C     19.220000    eV*Ang^6
O    c Ti   c Buckingham    Buckingham A     4590.7279    eV        0.000 10.000
                            Buckingham rho  0.26100000    Ang
                            Buckingham C     0.0000000    eV*Ang^6
O    c O    c Buckingham    Buckingham A     1388.7700    eV        0.000 10.000
                            Buckingham rho  0.36262000    Ang
                            Buckingham C     175.00000    eV*Ang^6
 Calling ------OPTIONS------

*  Output for configuration   1                                                *

  Components of energy :

  Interatomic potentials     =         252.05488473 eV
  Monopole - monopole (real) =        -121.78183040 eV
  Monopole - monopole (recip)=        -176.23510212 eV
  Monopole - monopole (total)=        -298.01693251 eV
  Total lattice energy       =         -45.96204778 eV
  Total lattice energy       =           -4434.6350 kJ/(mole unit cells)

  Number of variables =       48

  Maximum number of calculations  =          1000
  Maximum Hessian update interval =            10
  Maximum step size               =   1.000000000
  Maximum parameter tolerance     =   0.000010000
  Maximum function  tolerance     =   0.000010000
  Maximum gradient  tolerance     =   0.001000000
  Maximum gradient  component     =   0.010000000

  Cell parameters to be optimised using strains

  Conjugate gradient optimiser to be used

  Lower half triangular hessian to be used

  Minimiser to switch to BFGS with exact hessian
  When gradient norm is less than     0.100000

  Start of bulk optimisation :

 Perform trimming
 ALPHA BEFORE:    1.0000000000000000
 XC BEFORE:   0.50000000000000000
  ** Opt : line minimisation
left   ...       0.00000000     -45.96204778
centre ...       0.25000000    -151.94574012
right  ...       0.50000000    -221.62406934

left   ...       0.00000000     -45.96204778
centre ...       0.25000000    -151.94574012
right  ...       0.50000000    -221.62406934
new    ...       0.85480741    -287.03404440

__s__    ...       0.35480741

[...]

 ALPHA AFTER:    1.2682182118296077
 XC AFTER:   0.47906217823453129
 SANITY CHECK:    1.2682182118296050
 DIRECTION dim            1  value   -1.6509636567403174E-002
 DIRECTION dim            2  value   -3.3076942582235607E-004
 DIRECTION dim            3  value   -7.8869337607690201E-002
 DIRECTION dim            4  value    6.8184340503957283E-003
 DIRECTION dim            5  value    6.6227869714520753E-003
 DIRECTION dim            6  value   -9.6048413201128852E-003
 DIRECTION dim            7  value   -6.8184340503957283E-003
 DIRECTION dim            8  value   -6.6227869714520710E-003
 DIRECTION dim            9  value   -9.6048413201129269E-003
 DIRECTION dim           10  value   -5.4496109905292139E-003
 DIRECTION dim           11  value   -8.6531488829633182E-003
 DIRECTION dim           12  value    6.0901500990118825E-002
 DIRECTION dim           13  value    1.5140813507536668E-002
 DIRECTION dim           14  value    1.5606705280237741E-002
 DIRECTION dim           15  value    2.7572677937684236E-002
 DIRECTION dim           16  value    6.8184340503957309E-003
 DIRECTION dim           17  value   -6.6227869714520719E-003
 DIRECTION dim           18  value   -9.6048413201129095E-003
 DIRECTION dim           19  value   -1.5140813507536661E-002
 DIRECTION dim           20  value    1.5606705280237741E-002
 DIRECTION dim           21  value    2.7572677937684264E-002
 DIRECTION dim           22  value    5.4496109905292122E-003
 DIRECTION dim           23  value   -8.6531488829633182E-003
 DIRECTION dim           24  value    7.7507495455136979E-002
 DIRECTION dim           25  value   -6.7206105109238997E-003
 DIRECTION dim           26  value   -6.7206105109239031E-003
 DIRECTION dim           27  value    5.9846788820981593E-002
 DIRECTION dim           28  value    2.3294588635054428E-004
 DIRECTION dim           29  value   -2.3294588635053678E-004
 DIRECTION dim           30  value   -8.1269293832197553E-002
 DIRECTION dim           31  value    2.3294588635051515E-004
 DIRECTION dim           32  value   -2.3294588635053637E-004
 DIRECTION dim           33  value    4.4054150107526668E-002
 DIRECTION dim           34  value    5.6371531217289485E-004
 DIRECTION dim           35  value    5.6371531217289854E-004
 DIRECTION dim           36  value  -0.14630557863871513
 DIRECTION dim           37  value   -5.6371531217290006E-004
 DIRECTION dim           38  value    5.6371531217289887E-004
 DIRECTION dim           39  value    6.6639387431258731E-002
 DIRECTION dim           40  value   -5.6371531217288726E-004
 DIRECTION dim           41  value   -5.6371531217289919E-004
 DIRECTION dim           42  value    6.6639387431258745E-002
 DIRECTION dim           43  value   0.11535151153595628
 DIRECTION dim           44  value   0.11154815170797851
 DIRECTION dim           45  value   -2.9418437637588845E-002
 DIRECTION dim           46  value   -4.8481840069290695E-003
 DIRECTION dim           47  value    2.8064460769596021E-003
 DIRECTION dim           48  value    1.8328170557824020E-003
 Perform trimming
 ALPHA BEFORE:    1.2682182118296077
 XC BEFORE:   0.47906217823453129
  ** Opt : line minimisation
left   ...       0.00000000    -314.48515249
centre ...       0.31705455    -370.80072688
right  ...       0.63410911    -378.00898542

[...]

 ALPHA AFTER:   0.52212094790919983
 XC AFTER:   0.46511941474479107
 SANITY CHECK:   0.52212094790919972
 DIRECTION dim            1  value   -2.6704087521431830E-002
 DIRECTION dim            2  value   -3.2488305791041124E-002
 DIRECTION dim            3  value    6.2917832399771237E-002
 DIRECTION dim            4  value    2.8603688170360755E-002
 DIRECTION dim            5  value    1.1739451224732980E-002
 DIRECTION dim            6  value    5.7508345216513948E-002
 DIRECTION dim            7  value   -3.5113305657099095E-002
 DIRECTION dim            8  value   -3.7009924182167461E-002
 DIRECTION dim            9  value   -2.2584057074435990E-002
 DIRECTION dim           10  value   -5.4734525724169361E-003
 DIRECTION dim           11  value   -5.2827824018277077E-002
 DIRECTION dim           12  value   -5.1401375239115872E-002
 DIRECTION dim           13  value    1.2358154483399508E-002
 DIRECTION dim           14  value   -2.5666374587899636E-003
 DIRECTION dim           15  value   0.10035601993251544
 DIRECTION dim           16  value    2.9013818626501171E-002
 DIRECTION dim           17  value   -1.7023251921347429E-002
 DIRECTION dim           18  value   -1.7365911632977956E-002
 DIRECTION dim           19  value   -1.2702649755257790E-002
 DIRECTION dim           20  value   -5.8038733625580810E-003
 DIRECTION dim           21  value    9.4276717697227244E-002
 DIRECTION dim           22  value   -1.1692685335567581E-004
 DIRECTION dim           23  value   -4.4007556066960156E-002
 DIRECTION dim           24  value    2.3277161525131641E-003
 DIRECTION dim           25  value   -2.8584154455602275E-002
 DIRECTION dim           26  value    6.0196119948449520E-002
 DIRECTION dim           27  value  -0.11719087316772724
 DIRECTION dim           28  value    9.5922051841630003E-003
 DIRECTION dim           29  value    7.1046795800668805E-002
 DIRECTION dim           30  value   -1.2284143828804175E-002
 DIRECTION dim           31  value    5.9804192546281240E-003
 DIRECTION dim           32  value    6.5713266960116576E-002
 DIRECTION dim           33  value   -4.4057448066428299E-002
 DIRECTION dim           34  value    2.1142218201455988E-002
 DIRECTION dim           35  value    1.9969832983672157E-002
 DIRECTION dim           36  value   0.13820736438802078
 DIRECTION dim           37  value   -1.5136748842856738E-002
[...]
 DIRECTION dim           12  value   -1.0318895781362180E-003
 DIRECTION dim           13  value   -6.9797035461063080E-004
 DIRECTION dim           14  value    6.9014280989948594E-004
 DIRECTION dim           15  value    1.4463582981664685E-003
 DIRECTION dim           16  value   -5.3911894522214038E-003
 DIRECTION dim           17  value   -3.8787011424980082E-003
 DIRECTION dim           18  value   -7.4165513226337031E-005
 DIRECTION dim           19  value    1.5816198505763206E-003
 DIRECTION dim           20  value    3.5540863979899120E-003
 DIRECTION dim           21  value    6.4562943084462161E-003
 DIRECTION dim           22  value    2.5610375908704385E-003
 DIRECTION dim           23  value   -3.3758991423036987E-003
 DIRECTION dim           24  value   -3.4281858171477495E-003
 DIRECTION dim           25  value   -3.7449254017514768E-003
 DIRECTION dim           26  value    1.8644530087500049E-004
 DIRECTION dim           27  value    1.8403551982616013E-004
 DIRECTION dim           28  value    1.0440768408680745E-003
 DIRECTION dim           29  value   -1.8879681214664266E-004
 DIRECTION dim           30  value    2.9985200184683676E-003
 DIRECTION dim           31  value   -8.7165000821972857E-005
 DIRECTION dim           32  value   -2.4824306467582796E-003
 DIRECTION dim           33  value    6.5732929641529759E-005
 DIRECTION dim           34  value    7.5636016487313105E-003
 DIRECTION dim           35  value   -4.4312573559678083E-003
 DIRECTION dim           36  value   -1.9374248985134812E-003
 DIRECTION dim           37  value    2.4997533616293254E-003
 DIRECTION dim           38  value    1.9862666548789154E-003
 DIRECTION dim           39  value    1.3005993883013639E-003
 DIRECTION dim           40  value   -1.6563069309210349E-003
 DIRECTION dim           41  value    1.8988486450522704E-003
 DIRECTION dim           42  value   -3.4754973314442342E-003
 DIRECTION dim           43  value   -7.4975427091463322E-004
 DIRECTION dim           44  value    2.7749615703725958E-003
 DIRECTION dim           45  value   -8.7278946641038428E-004
 DIRECTION dim           46  value   -1.1597875352748368E-002
 DIRECTION dim           47  value   -4.0000776166459629E-003
 DIRECTION dim           48  value    2.9545231019195593E-003
 Perform trimming
 ALPHA BEFORE:   0.87635329447429844
 XC BEFORE:   0.39530663800001836
  ** Opt : line minimisation
left   ...       0.00000000    -471.99360347
centre ...       0.21908832    -472.04521722
right  ...       0.43817665    -472.08629343

[...]

 ALPHA AFTER:   0.45852443554052230
 XC AFTER:   0.40308330439136686
 SANITY CHECK:   0.45852443554051875
 DIRECTION dim            1  value    1.8491857448217782E-003
 DIRECTION dim            2  value   -1.9434046827590738E-003
 DIRECTION dim            3  value    1.0053778946697645E-003
 DIRECTION dim            4  value   -3.6232734665347481E-003
 DIRECTION dim            5  value    4.0211977266927284E-003
 DIRECTION dim            6  value    3.2217961883794178E-003
 DIRECTION dim            7  value   -3.5963988709780394E-004
 DIRECTION dim            8  value    3.4596964634302377E-003
 DIRECTION dim            9  value    1.5816568599755232E-003
 DIRECTION dim           10  value   -2.3046741360587689E-003
 DIRECTION dim           11  value   -1.3002837003747720E-003
 DIRECTION dim           12  value   -3.3382515390902056E-004
 DIRECTION dim           13  value    1.3606162858841812E-003
 DIRECTION dim           14  value   -8.0755038876693301E-004
 DIRECTION dim           15  value    3.5677987802317873E-004
 DIRECTION dim           16  value    9.2963503412039168E-004
 DIRECTION dim           17  value    2.1605826701717053E-003
 DIRECTION dim           18  value   -8.5717732389313343E-004
 DIRECTION dim           19  value    6.1479916385581907E-004
 DIRECTION dim           20  value   -3.6522016109565611E-004
 DIRECTION dim           21  value   -2.6580797030597934E-003
 DIRECTION dim           22  value    3.2591309111161754E-004
 DIRECTION dim           23  value    3.0812123742878423E-003
 DIRECTION dim           24  value    3.1085631629611905E-003
 DIRECTION dim           25  value    1.5157114446983986E-003
 DIRECTION dim           26  value    2.9996273733056951E-004
 DIRECTION dim           27  value    4.9095704504677228E-004
 DIRECTION dim           28  value   -4.8312683212551070E-004
 DIRECTION dim           29  value    1.6246518356209257E-003
 DIRECTION dim           30  value   -1.2801902577792146E-004
 DIRECTION dim           31  value    8.4786165664536622E-004
 DIRECTION dim           32  value   -1.1733939162677487E-003
 DIRECTION dim           33  value   -6.6878484209030717E-004
 DIRECTION dim           34  value   -6.1005897513193171E-004
 DIRECTION dim           35  value    1.8489069697495714E-003
 DIRECTION dim           36  value    2.2181647306888453E-004
 DIRECTION dim           37  value    1.0431434974048919E-003
 DIRECTION dim           38  value   -5.7448844804999127E-004
 DIRECTION dim           39  value    7.2771375920003341E-004
 DIRECTION dim           40  value    2.7878897595656725E-003
 DIRECTION dim           41  value    1.1457789255234555E-005
 DIRECTION dim           42  value    3.6973814990580627E-003
 DIRECTION dim           43  value   -1.8335397223997515E-003
 DIRECTION dim           44  value   -3.6562495229043213E-003
 DIRECTION dim           45  value    4.0416230891802138E-004
 DIRECTION dim           46  value    4.1411589838540224E-003
 DIRECTION dim           47  value   -1.0387229244000473E-003
 DIRECTION dim           48  value   -2.5514556132266259E-003
  ** Hessian calculated **
 ALPHA BEFORE:    1.0000000000000000
 XC BEFORE:   0.40308330439136686
  ** Opt : line minimisation
left   ...       0.00000000    -472.45027965
centre ...       0.25000000    -472.45788970
right  ...       0.50000000    -472.46512830

[...]

 ALPHA AFTER:    1.0384378305771429
 XC AFTER:   0.40112048848409448
 SANITY CHECK:    1.0384378305812112
 DIRECTION dim            1  value   -1.0621514212610232E-005
 DIRECTION dim            2  value   -4.8087688780977522E-004
 DIRECTION dim            3  value   -2.5354334847965990E-004
 DIRECTION dim            4  value    1.2558471665464091E-004
 DIRECTION dim            5  value   -6.2477264332213471E-004
 DIRECTION dim            6  value   -1.3862663958170868E-004
 DIRECTION dim            7  value   -4.7069174396320369E-005
 DIRECTION dim            8  value   -6.2359885949404164E-004
 DIRECTION dim            9  value   -1.5138642341836758E-004
 DIRECTION dim           10  value    6.3255909867624518E-006
 DIRECTION dim           11  value   -2.0777416827845094E-004
 DIRECTION dim           12  value   -1.0186367002281395E-004
 DIRECTION dim           13  value   -1.2028455664574010E-004
 DIRECTION dim           14  value   -4.3541561736626631E-005
 DIRECTION dim           15  value    4.0584710513099246E-005
 DIRECTION dim           16  value   -4.4494154564511334E-005
 DIRECTION dim           17  value   -2.2579001970973788E-004
 DIRECTION dim           18  value    9.9659556488658949E-005
 DIRECTION dim           19  value    5.1996904323045926E-006
 DIRECTION dim           20  value   -4.2368071333649779E-004
 DIRECTION dim           21  value   -2.9286133234995669E-005
 DIRECTION dim           22  value   -7.9572709175921678E-006
 DIRECTION dim           23  value   -3.6233509976598381E-004
 DIRECTION dim           24  value   -5.6872469521653606E-005
 DIRECTION dim           25  value    5.4563435591602230E-006
 DIRECTION dim           26  value   -3.0477842887574369E-004
 DIRECTION dim           27  value   -7.7355698477503463E-005
 DIRECTION dim           28  value   -4.5526540324273819E-005
 DIRECTION dim           29  value   -3.7848167325443800E-004
 DIRECTION dim           30  value   -4.3927033955516826E-005
 DIRECTION dim           31  value    8.4536063826146101E-005
 DIRECTION dim           32  value   -1.9306497055258549E-004
 DIRECTION dim           33  value   -8.5343858787991010E-005
 DIRECTION dim           34  value   -3.4286210194205889E-006
 DIRECTION dim           35  value   -4.6811415305976636E-004
 DIRECTION dim           36  value   -1.0711587979287585E-004
 DIRECTION dim           37  value   -2.2876207442887841E-005
 DIRECTION dim           38  value   -1.8558744166029021E-004
 DIRECTION dim           39  value    1.7352221329443253E-005
 DIRECTION dim           40  value    4.2910679181760916E-008
 DIRECTION dim           41  value   -3.3127191419073663E-004
 DIRECTION dim           42  value   -5.2850116017183271E-005
 DIRECTION dim           43  value   -6.5914134532685400E-005
 DIRECTION dim           44  value    2.7041225544527657E-004
 DIRECTION dim           45  value   -1.6781332632093731E-005
 DIRECTION dim           46  value    4.2356379602491651E-004
 DIRECTION dim           47  value    7.0962154988220315E-004
 DIRECTION dim           48  value    4.6642916594547674E-004
 ALPHA BEFORE:    4.6246863446522877
 XC BEFORE:   0.40112048848409448
  ** Opt : line minimisation
left   ...       0.00000000    -472.53016748
centre ...       1.00000000    -472.53017057
right  ...       2.00000000    -472.53016640

left   ...       0.00000000    -472.53016748
centre ...       1.00000000    -472.53017057
right  ...       2.00000000    -472.53016640
new    ...       1.00000000    -472.53017057

__s__    ...      -1.00000000

 ALPHA AFTER:    1.0000000000000000
 XC AFTER:   0.40111162402261946
 SANITY CHECK:   0.99999999999709765
 DIRECTION dim            1  value   -8.8644614750479062E-006
 DIRECTION dim            2  value   -7.9613011413453582E-005
 DIRECTION dim            3  value   -6.8192142173103640E-005
 DIRECTION dim            4  value    5.0284933565279608E-005
 DIRECTION dim            5  value   -4.5595011307220811E-005
 DIRECTION dim            6  value   -3.5776690901846650E-005
 DIRECTION dim            7  value    3.9466311599936152E-005
 DIRECTION dim            8  value   -7.2353746498082387E-005
 DIRECTION dim            9  value   -6.1510535084696941E-005
 DIRECTION dim           10  value    1.7896763699396575E-005
 DIRECTION dim           11  value   -1.2568942479512554E-005
 DIRECTION dim           12  value   -3.6807857202289025E-005
 DIRECTION dim           13  value    1.3785579262679176E-005
 DIRECTION dim           14  value   -2.5048928032452973E-005
 DIRECTION dim           15  value   -2.9367876749779750E-005
 DIRECTION dim           16  value    4.7217204911657025E-005
 DIRECTION dim           17  value   -1.2315200541901864E-005
 DIRECTION dim           18  value   -3.2785010027968692E-006
 DIRECTION dim           19  value    4.5310759922524665E-005
 DIRECTION dim           20  value   -6.9732718169181462E-005
 DIRECTION dim           21  value   -2.0691124793362448E-005
 DIRECTION dim           22  value    3.6508951707832235E-005
 DIRECTION dim           23  value   -3.9759624372390185E-005
 DIRECTION dim           24  value   -3.5735694742947304E-005
 DIRECTION dim           25  value    2.4613858782462663E-005
 DIRECTION dim           26  value   -3.2759366160578545E-005
 DIRECTION dim           27  value   -2.8267320608176237E-005
 DIRECTION dim           28  value    2.9469020232363601E-005
 DIRECTION dim           29  value   -5.8526009156068930E-005
 DIRECTION dim           30  value   -2.9119148714474434E-005
 DIRECTION dim           31  value    3.1434710318287931E-005
 DIRECTION dim           32  value   -6.3589818455839171E-006
 DIRECTION dim           33  value   -2.7382828765529761E-005
 DIRECTION dim           34  value    3.1461524269357652E-005
 DIRECTION dim           35  value   -3.7529018649304309E-005
 DIRECTION dim           36  value   -4.0716382607927648E-005
 DIRECTION dim           37  value    3.5215469950782039E-005
 DIRECTION dim           38  value   -3.7605917100172337E-005
 DIRECTION dim           39  value   -2.5815047751647393E-005
 DIRECTION dim           40  value    2.5040249632002702E-005
 DIRECTION dim           41  value   -3.6804343867881715E-005
 DIRECTION dim           42  value   -3.2915309015173576E-005
 DIRECTION dim           43  value   -4.3194932704511952E-005
 DIRECTION dim           44  value    1.1232929313285152E-004
 DIRECTION dim           45  value   -1.4454800079823224E-005
 DIRECTION dim           46  value    9.2685829647247344E-005
 DIRECTION dim           47  value    8.7432816771922976E-005
 DIRECTION dim           48  value    2.5994188821004574E-004

  **** Optimisation achieved ****

  Final energy =    -472.53017057 eV
  Final Gnorm  =       0.00032430

  Components of energy :

  Interatomic potentials     =          69.66149138 eV
  Monopole - monopole (real) =        -259.20448374 eV
  Monopole - monopole (recip)=        -282.98717821 eV
  Monopole - monopole (total)=        -542.19166195 eV
  Total lattice energy       =        -472.53017057 eV
  Total lattice energy       =          -45591.9382 kJ/(mole unit cells)

  Final fractional coordinates of atoms :

   No.  Atomic        x           y          z          Radius
        Label       (Frac)      (Frac)     (Frac)       (Angs)
     1  O     c     0.000000    0.500000    0.250000    0.000000
     2  O     c     0.401112    0.555761    0.229246    0.000000
     3  O     c     0.220972    0.592960    0.566921    0.000000
     4  O     c     0.339960    0.079375    0.509565    0.000000
     5  O     c     0.816670    0.498789    0.722355    0.000000
     6  O     c     0.118996    0.986410    0.192645    0.000000
     7  O     c     0.938850    0.023607    0.530317    0.000000
     8  O     c     0.523299    0.080582    0.037209    0.000000
     9  O     c     0.169984    0.289682    0.879782    0.000000
    10  Sr    c     0.669984    0.289685    0.379781    0.000000
    11  Sr    c     0.595429    0.909952    0.710486    0.000000
    12  Sr    c     0.744540    0.669418    0.049077    0.000000
    13  Ti    c     0.096589    0.324827    0.655337    0.000000
    14  Ti    c     0.243378    0.254540    0.104229    0.000000
    15  Ti    c     0.169983    0.789685    0.379783    0.000000

  Final Cartesian lattice vectors (Angstroms) :

        5.911673    0.063512    0.166119
        0.063512    5.207176   -0.518001
        0.332239   -1.036003    7.549471

  Final cell parameters and derivatives :

       a            5.914347 Angstrom     dE/de1(xx)     0.001967 eV/strain
       b            5.233263 Angstrom     dE/de2(yy)     0.002870 eV/strain
       c            7.627463 Angstrom     dE/de3(zz)     0.003349 eV/strain
       alpha      103.449602 Degrees      dE/de4(yz)     0.001915 eV/strain
       beta        85.992891 Degrees      dE/de5(xz)     0.002269 eV/strain
       gamma       88.851969 Degrees      dE/de6(xy)    -0.004222 eV/strain

  Primitive cell volume =           228.884082 Angs**3

  Density of cell =      3.993905 g/cm**3

  Non-primitive cell volume =           228.884082 Angs**3

  Final internal derivatives :

   No.  Atomic          a             b             c           Radius
        Label          (eV)          (eV)          (eV)        (eV/Angs)
      1 O     c       0.000000      0.000000      0.000000      0.000000
      2 O     c       0.000172     -0.001441     -0.003603      0.000000
      3 O     c      -0.000698     -0.003180      0.004743      0.000000
      4 O     c      -0.001190     -0.002085     -0.002064      0.000000
      5 O     c      -0.001736      0.002380     -0.000405      0.000000
      6 O     c       0.000891      0.001004     -0.002714      0.000000
      7 O     c      -0.001409      0.001236      0.000481      0.000000
      8 O     c       0.002193     -0.001571     -0.000336      0.000000
      9 O     c       0.000728     -0.000187      0.000073      0.000000
     10 Sr    c       0.000422      0.000102     -0.000149      0.000000
     11 Sr    c       0.001259      0.000757     -0.001637      0.000000
     12 Sr    c      -0.000264     -0.000713      0.000939      0.000000
     13 Ti    c       0.001742      0.000626     -0.005168      0.000000
     14 Ti    c      -0.001616     -0.002567      0.007251      0.000000
     15 Ti    c       0.001379     -0.000193      0.002017      0.000000
  Maximum abs         0.002193      0.003180      0.007251      0.000000

  Time to end of optimisation =       0.4711 seconds

 Exiting ------OPTIONS------

  Timing analysis for GULP :

  Task / Subroutine                                          Time (Seconds)
  Calculation of reciprocal space energy and derivatives          0.0516
  Calculation of real space energy and derivatives                0.4056
  Global summation overhead                                       0.0002

  Job Finished at 13:26.39 21st February   2020