  Job Started  at 12:06.57  4th February   2020

  Number of CPUs =     1

  Total number of configurations input =      1

*  Input for Configuration =   1                                               *

  Formula = O9Sr3Ti3

  Number of irreducible atoms/shells =      15

  Total number atoms/shells =      15

  Dimensionality = 3               :  Bulk

  Cartesian lattice vectors (Angstroms) :

        4.000000    0.000000    0.000000
        0.000000    4.000000    0.000000
        0.000000    0.000000    8.000000

  Cell parameters (Angstroms/Degrees):

  a =       4.0000    alpha =  90.0000
  b =       4.0000    beta  =  90.0000
  c =       8.0000    gamma =  90.0000

  Initial cell volume =         128.000000 Angs**3

  Temperature of configuration =  0.000     K

  Pressure of configuration =         0.000 GPa

  Fractional coordinates of asymmetric unit :

   No.  Atomic       x           y          z         Charge      Occupancy
        Label      (Frac)      (Frac)     (Frac)        (e)         (Frac)
      1 O     c    0.000000    0.500000    0.250000    -2.00000    1.000000
      2 O     c    0.500000 *  0.500000 *  0.250000 *  -2.00000    1.000000
      3 O     c    0.000000 *  0.500000 *  0.500000 *  -2.00000    1.000000
      4 O     c    0.500000 *  0.000000 *  0.500000 *  -2.00000    1.000000
      5 O     c    0.500000 *  0.500000 *  0.750000 *  -2.00000    1.000000
      6 O     c    0.000000 *  0.000000 *  0.000000 *  -2.00000    1.000000
      7 O     c    0.000000 *  0.000000 *  0.500000 *  -2.00000    1.000000
      8 O     c    0.500000 *  0.000000 *  0.000000 *  -2.00000    1.000000
      9 O     c    0.000000 *  0.500000 *  0.750000 *  -2.00000    1.000000
     10 Sr    c    0.750000 *  0.250000 *  0.375000 *   2.00000    1.000000
     11 Sr    c    0.750000 *  0.750000 *  0.875000 *   2.00000    1.000000
     12 Sr    c    0.750000 *  0.750000 *  0.125000 *   2.00000    1.000000
     13 Ti    c    0.750000 *  0.250000 *  0.875000 *   4.00000    1.000000
     14 Ti    c    0.250000 *  0.250000 *  0.125000 *   4.00000    1.000000
     15 Ti    c    0.250000 *  0.750000 *  0.125000 *   4.00000    1.000000

*  General input information                                                   *

  Species output for all configurations :

  Species    Type    Atomic    Atomic    Charge       Radii (Angs)     Library
                     Number     Mass       (e)     Cova   Ionic  VDW   Symbol
    O        Core        8      16.00  -2.000000   0.730  0.000  1.360
    Sr       Core       38      87.62   2.000000   1.120  0.000  1.670
    Ti       Core       22      47.88   4.000000   1.470  0.000  2.190

  Lattice summation method               =    Ewald          (3-D)
                                         =    Parry          (2-D)
                                         =    Saunders et al (1-D)
  Accuracy factor for lattice sums       =   12.000

  Time limit = Infinity

  Maximum range for interatomic potentials =    100000.000000 Angstroms

  General interatomic potentials :

Atom  Types   Potential      Parameter       Value         Units   Cutoffs(Ang)
  1     2                                                            Min /  Max
O    c Sr   c Buckingham    Buckingham A     1952.3900    eV        0.000 10.000
                            Buckingham rho  0.33685000    Ang
                            Buckingham C     19.220000    eV*Ang^6
O    c Ti   c Buckingham    Buckingham A     4590.7279    eV        0.000 10.000
                            Buckingham rho  0.26100000    Ang
                            Buckingham C     0.0000000    eV*Ang^6
O    c O    c Buckingham    Buckingham A     1388.7700    eV        0.000 10.000
                            Buckingham rho  0.36262000    Ang
                            Buckingham C     175.00000    eV*Ang^6
 Calling ------OPTIONS------

*  Output for configuration   1                                                *

  Components of energy :

  Interatomic potentials     =         252.05488473 eV
  Monopole - monopole (real) =        -121.78183040 eV
  Monopole - monopole (recip)=        -176.23510212 eV
  Monopole - monopole (total)=        -298.01693251 eV
  Total lattice energy       =         -45.96204778 eV
  Total lattice energy       =           -4434.6350 kJ/(mole unit cells)

  Number of variables =       48

  Maximum number of calculations  =          1000
  Maximum Hessian update interval =            10
  Maximum step size               =   1.000000000
  Maximum parameter tolerance     =   0.000010000
  Maximum function  tolerance     =   0.000010000
  Maximum gradient  tolerance     =   0.001000000
  Maximum gradient  component     =   0.010000000

  Cell parameters to be optimised using strains

  Conjugate gradient optimiser to be used

  Lower half triangular hessian to be used

  Minimiser to switch to BFGS with exact hessian
  When gradient norm is less than     0.100000

  Start of bulk optimisation :

 Perform trimming
 Line minimisation2
 ALPHA BEFORE:    1.0000000000000000
  ** Opt : line minimisation
left   ...       0.00000000     -45.96204778
centre ...       0.25000000    -151.94574012
right  ...       0.50000000    -221.62406934

left   ...       0.00000000     -45.96204778
centre ...       0.25000000    -151.94574012
right  ...       0.50000000    -221.62406934
new    ...       0.85480741    -287.03404440

__s__    ...       0.35480741

[...]

 ALPHA AFTER:    1.2682182118296077
 Perform trimming
 Line minimisation2
 ALPHA BEFORE:    1.2682182118296077
  ** Opt : line minimisation
left   ...       0.00000000    -314.48515249
centre ...       0.31705455    -370.80072688
right  ...       0.63410911    -378.00898542

[...]

 ALPHA AFTER:   0.52212094790919983
 Line minimisation2
 ALPHA BEFORE:   0.52212094790919983
  ** Opt : line minimisation
left   ...       0.00000000    -379.91588132
centre ...       0.13053024    -397.25641924
right  ...       0.26106047    -408.42393032

[...]

 ALPHA AFTER:   0.87635329447429844
 Perform trimming
 Line minimisation2
 ALPHA BEFORE:   0.87635329447429844
  ** Opt : line minimisation
left   ...       0.00000000    -471.99360347
centre ...       0.21908832    -472.04521722
right  ...       0.43817665    -472.08629343

[...]

 ALPHA AFTER:   0.45852443554052230
  ** Hessian calculated **
 Line minimisation2
 ALPHA BEFORE:    1.0000000000000000
  ** Opt : line minimisation
left   ...       0.00000000    -472.45027965
centre ...       0.25000000    -472.45788970
right  ...       0.50000000    -472.46512830

[...]

 ALPHA AFTER:    1.0384378305771429
 Line minimisation2
 ALPHA BEFORE:    4.6246863446522877
  ** Opt : line minimisation
left   ...       0.00000000    -472.53016748
centre ...       1.00000000    -472.53017057
right  ...       2.00000000    -472.53016640

left   ...       0.00000000    -472.53016748
centre ...       1.00000000    -472.53017057
right  ...       2.00000000    -472.53016640
new    ...       1.00000000    -472.53017057

__s__    ...      -1.00000000

 ALPHA AFTER:    1.0000000000000000

  **** Optimisation achieved ****

  Final energy =    -472.53017057 eV
  Final Gnorm  =       0.00032430

  Components of energy :

  Interatomic potentials     =          69.66149138 eV
  Monopole - monopole (real) =        -259.20448374 eV
  Monopole - monopole (recip)=        -282.98717821 eV
  Monopole - monopole (total)=        -542.19166195 eV
  Total lattice energy       =        -472.53017057 eV
  Total lattice energy       =          -45591.9382 kJ/(mole unit cells)

  Final fractional coordinates of atoms :

   No.  Atomic        x           y          z          Radius
        Label       (Frac)      (Frac)     (Frac)       (Angs)
     1  O     c     0.000000    0.500000    0.250000    0.000000
     2  O     c     0.401112    0.555761    0.229246    0.000000
     3  O     c     0.220972    0.592960    0.566921    0.000000
     4  O     c     0.339960    0.079375    0.509565    0.000000
     5  O     c     0.816670    0.498789    0.722355    0.000000
     6  O     c     0.118996    0.986410    0.192645    0.000000
     7  O     c     0.938850    0.023607    0.530317    0.000000
     8  O     c     0.523299    0.080582    0.037209    0.000000
     9  O     c     0.169984    0.289682    0.879782    0.000000
    10  Sr    c     0.669984    0.289685    0.379781    0.000000
    11  Sr    c     0.595429    0.909952    0.710486    0.000000
    12  Sr    c     0.744540    0.669418    0.049077    0.000000
    13  Ti    c     0.096589    0.324827    0.655337    0.000000
    14  Ti    c     0.243378    0.254540    0.104229    0.000000
    15  Ti    c     0.169983    0.789685    0.379783    0.000000

  Final Cartesian lattice vectors (Angstroms) :

        5.911673    0.063512    0.166119
        0.063512    5.207176   -0.518001
        0.332239   -1.036003    7.549471

  Final cell parameters and derivatives :

       a            5.914347 Angstrom     dE/de1(xx)     0.001967 eV/strain
       b            5.233263 Angstrom     dE/de2(yy)     0.002870 eV/strain
       c            7.627463 Angstrom     dE/de3(zz)     0.003349 eV/strain
       alpha      103.449602 Degrees      dE/de4(yz)     0.001915 eV/strain
       beta        85.992891 Degrees      dE/de5(xz)     0.002269 eV/strain
       gamma       88.851969 Degrees      dE/de6(xy)    -0.004222 eV/strain

  Primitive cell volume =           228.884082 Angs**3

  Density of cell =      3.993905 g/cm**3

  Non-primitive cell volume =           228.884082 Angs**3

  Final internal derivatives :

   No.  Atomic          a             b             c           Radius
        Label          (eV)          (eV)          (eV)        (eV/Angs)
      1 O     c       0.000000      0.000000      0.000000      0.000000
      2 O     c       0.000172     -0.001441     -0.003603      0.000000
      3 O     c      -0.000698     -0.003180      0.004743      0.000000
      4 O     c      -0.001190     -0.002085     -0.002064      0.000000
      5 O     c      -0.001736      0.002380     -0.000405      0.000000
      6 O     c       0.000891      0.001004     -0.002714      0.000000
      7 O     c      -0.001409      0.001236      0.000481      0.000000
      8 O     c       0.002193     -0.001571     -0.000336      0.000000
      9 O     c       0.000728     -0.000187      0.000073      0.000000
     10 Sr    c       0.000422      0.000102     -0.000149      0.000000
     11 Sr    c       0.001259      0.000757     -0.001637      0.000000
     12 Sr    c      -0.000264     -0.000713      0.000939      0.000000
     13 Ti    c       0.001742      0.000626     -0.005168      0.000000
     14 Ti    c      -0.001616     -0.002567      0.007251      0.000000
     15 Ti    c       0.001379     -0.000193      0.002017      0.000000
  Maximum abs         0.002193      0.003180      0.007251      0.000000

  Time to end of optimisation =       0.4338 seconds

 Exiting ------OPTIONS------

  Timing analysis for GULP :

  Task / Subroutine                                          Time (Seconds)
  Calculation of reciprocal space energy and derivatives          0.0501
  Calculation of real space energy and derivatives                0.3721
  Global summation overhead                                       0.0003

  Job Finished at 12:06.57  4th February   2020