  Job Started  at 16:30.42  3rd February   2020

  Number of CPUs =     1

  Total number of configurations input =      1

*  Input for Configuration =   1                                               *

  Formula = O9Sr3Ti3

  Number of irreducible atoms/shells =      15

  Total number atoms/shells =      15

  Dimensionality = 3               :  Bulk

  Cartesian lattice vectors (Angstroms) :

        4.000000    0.000000    0.000000
        0.000000    4.000000    0.000000
        0.000000    0.000000    8.000000

  Cell parameters (Angstroms/Degrees):

  a =       4.0000    alpha =  90.0000
  b =       4.0000    beta  =  90.0000
  c =       8.0000    gamma =  90.0000

  Initial cell volume =         128.000000 Angs**3

  Temperature of configuration =  0.000     K

  Pressure of configuration =         0.000 GPa

  Fractional coordinates of asymmetric unit :

   No.  Atomic       x           y          z         Charge      Occupancy
        Label      (Frac)      (Frac)     (Frac)        (e)         (Frac)
      1 O     c    0.500000    0.500000    0.750000    -2.00000    1.000000
      2 O     c    0.500000 *  0.000000 *  0.750000 *  -2.00000    1.000000
      3 O     c    0.000000 *  0.500000 *  0.750000 *  -2.00000    1.000000
      4 O     c    0.000000 *  0.500000 *  0.000000 *  -2.00000    1.000000
      5 O     c    0.000000 *  0.000000 *  0.250000 *  -2.00000    1.000000
      6 O     c    0.500000 *  0.000000 *  0.250000 *  -2.00000    1.000000
      7 O     c    0.500000 *  0.500000 *  0.250000 *  -2.00000    1.000000
      8 O     c    0.500000 *  0.500000 *  0.500000 *  -2.00000    1.000000
      9 O     c    0.500000 *  0.000000 *  0.500000 *  -2.00000    1.000000
     10 Sr    c    0.250000 *  0.750000 *  0.375000 *   2.00000    1.000000
     11 Sr    c    0.250000 *  0.750000 *  0.875000 *   2.00000    1.000000
     12 Sr    c    0.250000 *  0.250000 *  0.625000 *   2.00000    1.000000
     13 Ti    c    0.250000 *  0.750000 *  0.625000 *   4.00000    1.000000
     14 Ti    c    0.750000 *  0.250000 *  0.875000 *   4.00000    1.000000
     15 Ti    c    0.750000 *  0.750000 *  0.375000 *   4.00000    1.000000

*  General input information                                                   *

  Species output for all configurations :

  Species    Type    Atomic    Atomic    Charge       Radii (Angs)     Library
                     Number     Mass       (e)     Cova   Ionic  VDW   Symbol
    O        Core        8      16.00  -2.000000   0.730  0.000  1.360
    Sr       Core       38      87.62   2.000000   1.120  0.000  1.670
    Ti       Core       22      47.88   4.000000   1.470  0.000  2.190

  Lattice summation method               =    Ewald          (3-D)
                                         =    Parry          (2-D)
                                         =    Saunders et al (1-D)
  Accuracy factor for lattice sums       =   12.000

  Time limit = Infinity

  Maximum range for interatomic potentials =    100000.000000 Angstroms

  General interatomic potentials :

Atom  Types   Potential      Parameter       Value         Units   Cutoffs(Ang)
  1     2                                                            Min /  Max
O    c Sr   c Buckingham    Buckingham A     1952.3900    eV        0.000 10.000
                            Buckingham rho  0.33685000    Ang
                            Buckingham C     19.220000    eV*Ang^6
O    c Ti   c Buckingham    Buckingham A     4590.7279    eV        0.000 10.000
                            Buckingham rho  0.26100000    Ang
                            Buckingham C     0.0000000    eV*Ang^6
O    c O    c Buckingham    Buckingham A     1388.7700    eV        0.000 10.000
                            Buckingham rho  0.36262000    Ang
                            Buckingham C     175.00000    eV*Ang^6
 Calling ------OPTIONS------

*  Output for configuration   1                                                *

  Components of energy :

  Interatomic potentials     =         283.74069147 eV
  Monopole - monopole (real) =        -200.67401279 eV
  Monopole - monopole (recip)=        -313.23454466 eV
  Monopole - monopole (total)=        -513.90855745 eV
  Total lattice energy       =        -230.16786598 eV
  Total lattice energy       =          -22207.6806 kJ/(mole unit cells)

  Number of variables =       48

  Maximum number of calculations  =          1000
  Maximum Hessian update interval =            10
  Maximum step size               =   0.001000000
  Maximum parameter tolerance     =   0.000010000
  Maximum function  tolerance     =   0.000010000
  Maximum gradient  tolerance     =   0.001000000
  Maximum gradient  component     =   0.010000000

  Cell parameters to be optimised using strains

  Conjugate gradient optimiser to be used

  Lower half triangular hessian to be used

  Minimiser to switch to BFGS with exact hessian
  When gradient norm is less than     0.500000

  Switch max step size to       0.10000000 when gnorm is less than    10.000000

  Start of bulk optimisation :

 Perform trimming
 Line minimisation2
 ALPHA BEFORE:    1.0000000000000000
  ** Opt : line minimisation
left   ...       0.00000000    -230.16786598
centre ...       0.00100000    -230.47284258
right  ...       0.00200000    -230.79029411

left   ...       0.00000000    -230.16786598
centre ...       0.00100000    -230.47284258
right  ...       0.00200000    -230.79029411
new    ...       0.00300000    -231.10709624

__s__    ...       0.00100000

[...]

 ALPHA AFTER:    6.0000000000000010E-003
 Perform trimming
 Line minimisation2
 ALPHA BEFORE:    6.0000000000000010E-003
  ** Opt : line minimisation
left   ...       0.00000000    -232.05361285
centre ...       0.00100000    -232.52471168
right  ...       0.00200000    -232.99437400

[...]

 ALPHA AFTER:    8.0000000000000019E-003
 Line minimisation2
 ALPHA BEFORE:    8.0000000000000019E-003
  ** Opt : line minimisation
left   ...       0.00000000    -239.86996828
centre ...       0.00100000    -240.85287934
right  ...       0.00200000    -241.82924828

[...]

 ALPHA AFTER:   0.39614652266520367
 Perform trimming
 Line minimisation2
 ALPHA BEFORE:   0.39614652266520367
  ** Opt : line minimisation
left   ...       0.00000000    -446.67700652
centre ...       0.09903663    -448.20213423
right  ...       0.19807326    -449.48260396

[...]

 ALPHA AFTER:   0.40000000000000002
  ** Hessian calculated **
 Line minimisation2
 ALPHA BEFORE:    1.0000000000000000
  ** Opt : line minimisation
left   ...       0.00000000    -466.59689461
centre ...       0.10000000    -466.70401811
right  ...       0.20000000    -466.80559237

[...]

 ALPHA AFTER:   0.25361678321078956
 Line minimisation2
 ALPHA BEFORE:   0.30506227082995596
  ** Opt : line minimisation
left   ...       0.00000000    -470.45668146
centre ...       0.07626557    -470.45679329
right  ...       0.15253114    -470.45689337

[...]

 ALPHA AFTER:    0.0000000000000000
  ** Hessian calculated **
 Line minimisation2
 ALPHA BEFORE:    1.0000000000000000
  ** Opt : line minimisation
left   ...       0.00000000    -470.45701557
centre ...       0.10000000    -470.45692707
right  ...      -0.10000000    -470.45692033

left   ...      -0.10000000    -470.45692033
centre ...       0.00000000    -470.45701557
right  ...       0.10000000    -470.45692707
new    ...       0.00000000    -470.45701557

__s__    ...       0.10000000

 ALPHA AFTER:    0.0000000000000000

  **** Conditions for a minimum have not been satisfied. However ****
  **** no lower point can be found - treat results with caution  ****
  **** unless gradient norm is small (less than 0.1)             ****

  Final energy =    -470.45701557 eV
  Final Gnorm  =       0.01465050

  Components of energy :

  Interatomic potentials     =          70.42495843 eV
  Monopole - monopole (real) =        -256.46087884 eV
  Monopole - monopole (recip)=        -284.42109515 eV
  Monopole - monopole (total)=        -540.88197400 eV
  Total lattice energy       =        -470.45701557 eV
  Total lattice energy       =          -45391.9104 kJ/(mole unit cells)

  Final fractional coordinates of atoms :

   No.  Atomic        x           y          z          Radius
        Label       (Frac)      (Frac)     (Frac)       (Angs)
     1  O     c     0.500000    0.500000    0.750000    0.000000
     2  O     c     0.473543    0.019102    0.780703    0.000000
     3  O     c     0.084129    0.667661    0.636642    0.000000
     4  O     c     0.814285    0.338976    0.967336    0.000000
     5  O     c     0.770702    0.990583    0.253091    0.000000
     6  O     c     0.368114    0.158779    0.122123    0.000000
     7  O     c     0.361473    0.643294    0.092590    0.000000
     8  O     c     0.569100    0.655606    0.417966    0.000000
     9  O     c     0.269945    0.006575    0.451963    0.000000
    10  Sr    c     0.971781    0.468301    0.277909    0.000000
    11  Sr    c     0.968523    0.836669    0.956774    0.000000
    12  Sr    c     0.893661    0.193848    0.603780    0.000000
    13  Ti    c     0.392458    0.733588    0.620444    0.000000
    14  Ti    c     0.492237    0.331628    0.946075    0.000000
    15  Ti    c     0.463626    0.921312    0.258751    0.000000

  Final Cartesian lattice vectors (Angstroms) :

        5.663554    0.133085    0.080865
        0.133085    5.230927   -0.516701
        0.161731   -1.033402    7.717178

  Final cell parameters and derivatives :

       a            5.665695 Angstrom     dE/de1(xx)    -0.276618 eV/strain
       b            5.258069 Angstrom     dE/de2(yy)    -0.178086 eV/strain
       c            7.787741 Angstrom     dE/de3(zz)    -0.041351 eV/strain
       alpha      103.230154 Degrees      dE/de4(yz)     0.011752 eV/strain
       beta        88.178492 Degrees      dE/de5(xz)     0.031365 eV/strain
       gamma       87.290791 Degrees      dE/de6(xy)    -0.024988 eV/strain

  Primitive cell volume =           225.374893 Angs**3

  Density of cell =      4.056092 g/cm**3

  Non-primitive cell volume =           225.374893 Angs**3

  Final internal derivatives :

   No.  Atomic          a             b             c           Radius
        Label          (eV)          (eV)          (eV)        (eV/Angs)
      1 O     c       0.000000      0.000000      0.000000      0.000000
      2 O     c       0.010951     -0.014153     -0.077380      0.000000
      3 O     c       0.152029      0.039881     -0.084636      0.000000
      4 O     c      -0.120529      0.000707     -0.156474      0.000000
      5 O     c      -0.212811     -0.014676      0.071763      0.000000
      6 O     c       0.006632     -0.026293      0.041424      0.000000
      7 O     c       0.030348      0.077637      0.225842      0.000000
      8 O     c       0.034614     -0.009886      0.173357      0.000000
      9 O     c       0.052981     -0.108595      0.163697      0.000000
     10 Sr    c      -0.001245      0.034186     -0.079164      0.000000
     11 Sr    c       0.001035      0.015816      0.045771      0.000000
     12 Sr    c       0.016058     -0.022884      0.001241      0.000000
     13 Ti    c      -0.189482      0.079897     -0.131477      0.000000
     14 Ti    c       0.104714      0.026634     -0.075370      0.000000
     15 Ti    c       0.051516     -0.000015     -0.178042      0.000000
  Maximum abs         0.212811      0.108595      0.225842      0.000000

  Time to end of optimisation =       0.4893 seconds

 Exiting ------OPTIONS------

  Timing analysis for GULP :

  Task / Subroutine                                          Time (Seconds)
  Calculation of reciprocal space energy and derivatives          0.0654
  Calculation of real space energy and derivatives                0.4085
  Calculation of matrix inversion                                 0.0001
  Global summation overhead                                       0.0004

  Job Finished at 16:30.42  3rd February   2020