  Job Started  at 12:05.43  4th February   2020

  Number of CPUs =     1

  Total number of configurations input =      1

*  Input for Configuration =   1                                               *

  Formula = O9Sr3Ti3

  Number of irreducible atoms/shells =      15

  Total number atoms/shells =      15

  Dimensionality = 3               :  Bulk

  Cartesian lattice vectors (Angstroms) :

        4.000000    0.000000    0.000000
        0.000000    6.000000    0.000000
        0.000000    0.000000   12.000000

  Cell parameters (Angstroms/Degrees):

  a =       4.0000    alpha =  90.0000
  b =       6.0000    beta  =  90.0000
  c =      12.0000    gamma =  90.0000

  Initial cell volume =         288.000000 Angs**3

  Temperature of configuration =  0.000     K

  Pressure of configuration =         0.000 GPa

  Fractional coordinates of asymmetric unit :

   No.  Atomic       x           y          z         Charge      Occupancy
        Label      (Frac)      (Frac)     (Frac)        (e)         (Frac)
      1 O     c    0.000000    0.333330    0.000000    -2.00000    1.000000
      2 O     c    0.000000 *  0.666670 *  0.166670 *  -2.00000    1.000000
      3 O     c    0.500000 *  0.666670 *  0.333330 *  -2.00000    1.000000
      4 O     c    0.000000 *  0.666670 *  0.666670 *  -2.00000    1.000000
      5 O     c    0.000000 *  0.333330 *  0.166670 *  -2.00000    1.000000
      6 O     c    0.000000 *  0.666670 *  0.833330 *  -2.00000    1.000000
      7 O     c    0.500000 *  0.666670 *  0.666670 *  -2.00000    1.000000
      8 O     c    0.000000 *  0.333330 *  0.500000 *  -2.00000    1.000000
      9 O     c    0.000000 *  0.000000 *  0.500000 *  -2.00000    1.000000
     10 Sr    c    0.750000 *  0.500000 *  0.250000 *   2.00000    1.000000
     11 Sr    c    0.750000 *  0.500000 *  0.916670 *   2.00000    1.000000
     12 Sr    c    0.750000 *  0.833330 *  0.750000 *   2.00000    1.000000
     13 Ti    c    0.750000 *  0.833330 *  0.083330 *   4.00000    1.000000
     14 Ti    c    0.250000 *  0.500000 *  0.916670 *   4.00000    1.000000
     15 Ti    c    0.250000 *  0.166670 *  0.250000 *   4.00000    1.000000

*  General input information                                                   *

  Species output for all configurations :

  Species    Type    Atomic    Atomic    Charge       Radii (Angs)     Library
                     Number     Mass       (e)     Cova   Ionic  VDW   Symbol
    O        Core        8      16.00  -2.000000   0.730  0.000  1.360
    Sr       Core       38      87.62   2.000000   1.120  0.000  1.670
    Ti       Core       22      47.88   4.000000   1.470  0.000  2.190

  Lattice summation method               =    Ewald          (3-D)
                                         =    Parry          (2-D)
                                         =    Saunders et al (1-D)
  Accuracy factor for lattice sums       =   12.000

  Time limit = Infinity

  Maximum range for interatomic potentials =    100000.000000 Angstroms

  General interatomic potentials :

Atom  Types   Potential      Parameter       Value         Units   Cutoffs(Ang)
  1     2                                                            Min /  Max
O    c Sr   c Buckingham    Buckingham A     1952.3900    eV        0.000 10.000
                            Buckingham rho  0.33685000    Ang
                            Buckingham C     19.220000    eV*Ang^6
O    c Ti   c Buckingham    Buckingham A     4590.7279    eV        0.000 10.000
                            Buckingham rho  0.26100000    Ang
                            Buckingham C     0.0000000    eV*Ang^6
O    c O    c Buckingham    Buckingham A     1388.7700    eV        0.000 10.000
                            Buckingham rho  0.36262000    Ang
                            Buckingham C     175.00000    eV*Ang^6
 Calling ------OPTIONS------

*  Output for configuration   1                                                *

  Components of energy :

  Interatomic potentials     =         128.82078291 eV
  Monopole - monopole (real) =         -97.95825989 eV
  Monopole - monopole (recip)=        -103.78411368 eV
  Monopole - monopole (total)=        -201.74237357 eV
  Total lattice energy       =         -72.92159066 eV
  Total lattice energy       =           -7035.8188 kJ/(mole unit cells)

  Number of variables =       48

  Maximum number of calculations  =          1000
  Maximum Hessian update interval =            10
  Maximum step size               =   0.001000000
  Maximum parameter tolerance     =   0.000010000
  Maximum function  tolerance     =   0.000010000
  Maximum gradient  tolerance     =   0.001000000
  Maximum gradient  component     =   0.010000000

  Cell parameters to be optimised using strains

  Conjugate gradient optimiser to be used

  Lower half triangular hessian to be used

  Minimiser to switch to BFGS with exact hessian
  When gradient norm is less than     0.500000

  Switch max step size to       0.10000000 when gnorm is less than    10.000000

  Start of bulk optimisation :

 Perform trimming
 Line minimisation2
 ALPHA BEFORE:    1.0000000000000000
  ** Opt : line minimisation
left   ...       0.00000000     -72.92159066
centre ...       0.00100000     -73.33514135
right  ...       0.00200000     -73.75269641

left   ...       0.00000000     -72.92159066
centre ...       0.00100000     -73.33514135
right  ...       0.00200000     -73.75269641
new    ...       0.00300000     -74.16953118

__s__    ...       0.00100000

[...]

 ALPHA AFTER:    5.0000000000000010E-003
 Perform trimming
 Line minimisation2
 ALPHA BEFORE:    5.0000000000000010E-003
  ** Opt : line minimisation
left   ...       0.00000000     -75.00104147
centre ...       0.00100000     -75.62280123
right  ...       0.00200000     -76.24295561

[...]

 ALPHA AFTER:    8.0000000000000019E-003
 Line minimisation2
 ALPHA BEFORE:    8.0000000000000019E-003
  ** Opt : line minimisation
left   ...       0.00000000    -112.28869575
centre ...       0.00100000    -114.58455136
right  ...       0.00200000    -116.85763956

[...]

 ALPHA AFTER:   0.36319282155230215
 Perform trimming
 Line minimisation2
 ALPHA BEFORE:   0.36319282155230215
  ** Opt : line minimisation
left   ...       0.00000000    -467.46226950
centre ...       0.09079821    -467.53607726
right  ...       0.18159641    -467.57869010

[...]

 ALPHA AFTER:   0.21988349144364402
  ** Hessian calculated **
 Line minimisation2
 ALPHA BEFORE:    1.0000000000000000
  ** Opt : line minimisation
left   ...       0.00000000    -467.86445739
centre ...       0.10000000    -467.91385659
right  ...       0.20000000    -467.95832638

[...]

 ALPHA AFTER:   0.15075561589122413
 Line minimisation2
 ALPHA BEFORE:   0.10050374392748276
  ** Opt : line minimisation
left   ...       0.00000000    -470.18732930
centre ...       0.02512594    -470.18720931
right  ...      -0.02512594    -470.18727363

[...]

 ALPHA AFTER:   -2.5177579279473429E-003
  ** Hessian calculated **
 Line minimisation2
 ALPHA BEFORE:    1.0000000000000000
  ** Opt : line minimisation
left   ...       0.00000000    -470.18732930
centre ...       0.10000000    -470.18720089
right  ...      -0.10000000    -470.18727900

[...]

left   ...      -0.00521551    -470.18732677
centre ...       0.00000000    -470.18732930
right  ...       0.00586046    -470.18715713
new    ...      -0.00251776    -470.18732808

__s__    ...       0.00269775

 ALPHA AFTER:   -2.5177579279473429E-003

  **** Conditions for a minimum have not been satisfied. However ****
  **** no lower point can be found - treat results with caution  ****
  **** unless gradient norm is small (less than 0.1)             ****

  Final energy =    -470.18732930 eV
  Final Gnorm  =       0.01412788

  Components of energy :

  Interatomic potentials     =          73.04882653 eV
  Monopole - monopole (real) =        -281.20943930 eV
  Monopole - monopole (recip)=        -262.02671652 eV
  Monopole - monopole (total)=        -543.23615582 eV
  Total lattice energy       =        -470.18732930 eV
  Total lattice energy       =          -45365.8898 kJ/(mole unit cells)

  Final fractional coordinates of atoms :

   No.  Atomic        x           y          z          Radius
        Label       (Frac)      (Frac)     (Frac)       (Angs)
     1  O     c     0.000000    0.333330    0.000000    0.000000
     2  O     c     0.006444    0.941429    0.244409    0.000000
     3  O     c     0.497854    0.078342    0.244541    0.000000
     4  O     c     0.250985    0.633393    0.723747    0.000000
     5  O     c     0.981752    0.334351    0.257740    0.000000
     6  O     c     0.951284    0.840650    0.014797    0.000000
     7  O     c     0.483838    0.663690    0.905452    0.000000
     8  O     c     0.261604    0.467582    0.388668    0.000000
     9  O     c     0.913462    0.032108    0.522362    0.000000
    10  Sr    c     0.619478    0.631870    0.451358    0.000000
    11  Sr    c     0.394585    0.669998    0.155270    0.000000
    12  Sr    c     0.917687    0.849360    0.707568    0.000000
    13  Ti    c     0.886280    0.108173    0.143406    0.000000
    14  Ti    c     0.170805    0.605874    0.905031    0.000000
    15  Ti    c     0.131834    0.179335    0.351982    0.000000

  Final Cartesian lattice vectors (Angstroms) :

        5.491542   -0.273046    1.221273
       -0.409570    5.720518   -0.156831
        3.663820   -0.313663   10.023063

  Final cell parameters and derivatives :

       a            5.632326 Angstrom     dE/de1(xx)    -0.181162 eV/strain
       b            5.737305 Angstrom     dE/de2(yy)    -0.017135 eV/strain
       c           10.676318 Angstrom     dE/de3(zz)    -0.210771 eV/strain
       alpha       94.557195 Degrees      dE/de4(yz)     0.037575 eV/strain
       beta        57.344640 Degrees      dE/de5(xz)    -0.085627 eV/strain
       gamma       97.115304 Degrees      dE/de6(xy)    -0.000449 eV/strain

  Primitive cell volume =           288.195292 Angs**3

  Density of cell =      3.171951 g/cm**3

  Non-primitive cell volume =           288.195292 Angs**3

  Final internal derivatives :

   No.  Atomic          a             b             c           Radius
        Label          (eV)          (eV)          (eV)        (eV/Angs)
      1 O     c       0.000000      0.000000      0.000000      0.000000
      2 O     c       0.042983     -0.049839      0.025955      0.000000
      3 O     c      -0.096800     -0.085210     -0.089462      0.000000
      4 O     c      -0.096139      0.000748      0.153862      0.000000
      5 O     c       0.003391     -0.054282     -0.013162      0.000000
      6 O     c       0.055593      0.125152     -0.074928      0.000000
      7 O     c      -0.049486      0.039927      0.034271      0.000000
      8 O     c       0.148666     -0.023348     -0.157174      0.000000
      9 O     c       0.000021     -0.008121      0.122332      0.000000
     10 Sr    c      -0.036290      0.121475      0.167511      0.000000
     11 Sr    c      -0.046906     -0.042628     -0.007587      0.000000
     12 Sr    c      -0.055826     -0.001470      0.144347      0.000000
     13 Ti    c      -0.094996     -0.023743      0.148281      0.000000
     14 Ti    c      -0.002833      0.250721     -0.069783      0.000000
     15 Ti    c       0.085804     -0.148575     -0.122565      0.000000
  Maximum abs         0.148666      0.250721      0.167511      0.000000

  Time to end of optimisation =       0.8805 seconds

 Exiting ------OPTIONS------

  Timing analysis for GULP :

  Task / Subroutine                                          Time (Seconds)
  Calculation of reciprocal space energy and derivatives          0.0991
  Calculation of real space energy and derivatives                0.7628
  Calculation of matrix inversion                                 0.0003
  Global summation overhead                                       0.0005

  Job Finished at 12:05.44  4th February   2020