  Job Started  at 16:29.46  3rd February   2020

  Number of CPUs =     1

  Total number of configurations input =      1

*  Input for Configuration =   1                                               *

  Formula = O9Sr3Ti3

  Number of irreducible atoms/shells =      15

  Total number atoms/shells =      15

  Dimensionality = 3               :  Bulk

  Cartesian lattice vectors (Angstroms) :

        6.000000    0.000000    0.000000
        0.000000    6.000000    0.000000
        0.000000    0.000000   12.000000

  Cell parameters (Angstroms/Degrees):

  a =       6.0000    alpha =  90.0000
  b =       6.0000    beta  =  90.0000
  c =      12.0000    gamma =  90.0000

  Initial cell volume =         432.000000 Angs**3

  Temperature of configuration =  0.000     K

  Pressure of configuration =         0.000 GPa

  Fractional coordinates of asymmetric unit :

   No.  Atomic       x           y          z         Charge      Occupancy
        Label      (Frac)      (Frac)     (Frac)        (e)         (Frac)
      1 O     c    0.000000    0.333330    0.833330    -2.00000    1.000000
      2 O     c    0.666670 *  0.666670 *  0.000000 *  -2.00000    1.000000
      3 O     c    0.333330 *  0.666670 *  0.166670 *  -2.00000    1.000000
      4 O     c    0.333330 *  0.000000 *  0.166670 *  -2.00000    1.000000
      5 O     c    0.333330 *  0.333330 *  0.166670 *  -2.00000    1.000000
      6 O     c    0.333330 *  0.333330 *  0.833330 *  -2.00000    1.000000
      7 O     c    0.333330 *  0.000000 *  0.500000 *  -2.00000    1.000000
      8 O     c    0.666670 *  0.000000 *  0.000000 *  -2.00000    1.000000
      9 O     c    0.666670 *  0.000000 *  0.166670 *  -2.00000    1.000000
     10 Sr    c    0.500000 *  0.833330 *  0.916670 *   2.00000    1.000000
     11 Sr    c    0.166670 *  0.500000 *  0.916670 *   2.00000    1.000000
     12 Sr    c    0.166670 *  0.833330 *  0.416670 *   2.00000    1.000000
     13 Ti    c    0.833330 *  0.500000 *  0.416670 *   4.00000    1.000000
     14 Ti    c    0.166670 *  0.166670 *  0.916670 *   4.00000    1.000000
     15 Ti    c    0.833330 *  0.833330 *  0.583330 *   4.00000    1.000000

*  General input information                                                   *

  Species output for all configurations :

  Species    Type    Atomic    Atomic    Charge       Radii (Angs)     Library
                     Number     Mass       (e)     Cova   Ionic  VDW   Symbol
    O        Core        8      16.00  -2.000000   0.730  0.000  1.360
    Sr       Core       38      87.62   2.000000   1.120  0.000  1.670
    Ti       Core       22      47.88   4.000000   1.470  0.000  2.190

  Lattice summation method               =    Ewald          (3-D)
                                         =    Parry          (2-D)
                                         =    Saunders et al (1-D)
  Accuracy factor for lattice sums       =   12.000

  Time limit = Infinity

  Maximum range for interatomic potentials =    100000.000000 Angstroms

  General interatomic potentials :

Atom  Types   Potential      Parameter       Value         Units   Cutoffs(Ang)
  1     2                                                            Min /  Max
O    c Sr   c Buckingham    Buckingham A     1952.3900    eV        0.000 10.000
                            Buckingham rho  0.33685000    Ang
                            Buckingham C     19.220000    eV*Ang^6
O    c Ti   c Buckingham    Buckingham A     4590.7279    eV        0.000 10.000
                            Buckingham rho  0.26100000    Ang
                            Buckingham C     0.0000000    eV*Ang^6
O    c O    c Buckingham    Buckingham A     1388.7700    eV        0.000 10.000
                            Buckingham rho  0.36262000    Ang
                            Buckingham C     175.00000    eV*Ang^6
 Calling ------OPTIONS------

*  Output for configuration   1                                                *

  Components of energy :

  Interatomic potentials     =          86.73882635 eV
  Monopole - monopole (real) =         -15.03500613 eV
  Monopole - monopole (recip)=        -125.05826005 eV
  Monopole - monopole (total)=        -140.09326618 eV
  Total lattice energy       =         -53.35443983 eV
  Total lattice energy       =           -5147.8878 kJ/(mole unit cells)

  Number of variables =       48

  Maximum number of calculations  =          1000
  Maximum Hessian update interval =            10
  Maximum step size               =   0.001000000
  Maximum parameter tolerance     =   0.000010000
  Maximum function  tolerance     =   0.000010000
  Maximum gradient  tolerance     =   0.001000000
  Maximum gradient  component     =   0.010000000

  Cell parameters to be optimised using strains

  Conjugate gradient optimiser to be used

  Lower half triangular hessian to be used

  Minimiser to switch to BFGS with exact hessian
  When gradient norm is less than     0.500000

  Switch max step size to       0.10000000 when gnorm is less than    10.000000

  Start of bulk optimisation :

 Perform trimming
 Line minimisation2
 ALPHA BEFORE:    1.0000000000000000
  ** Opt : line minimisation
left   ...       0.00000000     -53.35443983
centre ...       0.00100000     -53.65256481
right  ...       0.00200000     -53.95106019

left   ...       0.00000000     -53.35443983
centre ...       0.00100000     -53.65256481
right  ...       0.00200000     -53.95106019
new    ...       0.00300000     -54.24922626

__s__    ...       0.00100000

[...]

 ALPHA AFTER:    5.0000000000000010E-003
 Perform trimming
 Line minimisation2
 ALPHA BEFORE:    5.0000000000000010E-003
  ** Opt : line minimisation
left   ...       0.00000000     -54.84457165
centre ...       0.00100000     -55.29022361
right  ...       0.00200000     -55.73514154

[...]

 ALPHA AFTER:    8.0000000000000019E-003
 Line minimisation2
 ALPHA BEFORE:    8.0000000000000019E-003
  ** Opt : line minimisation
left   ...       0.00000000     -81.15985733
centre ...       0.00100000     -82.94527149
right  ...       0.00200000     -84.71882907

[...]

 ALPHA AFTER:   0.28344026769462499
 Perform trimming
 Line minimisation2
 ALPHA BEFORE:   0.28344026769462499
  ** Opt : line minimisation
left   ...       0.00000000    -453.70561112
centre ...       0.07086007    -453.93049239
right  ...       0.14172013    -454.12527097

[...]

 ALPHA AFTER:   0.21532648339713290
  ** Hessian calculated **
 Line minimisation2
 ALPHA BEFORE:    1.0000000000000000
  ** Opt : line minimisation
left   ...       0.00000000    -455.63607844
centre ...       0.10000000    -455.67569098
right  ...       0.20000000    -455.71507226

[...]

 ALPHA AFTER:    4.3971116440216325E-003
 Line minimisation2
 ALPHA BEFORE:    4.4314368797838469E-003
  ** Opt : line minimisation
left   ...       0.00000000    -468.59699413
centre ...       0.00110786    -468.59681913
right  ...      -0.00110786    -468.59699412

[...]

 ALPHA AFTER:   -1.2141268749008382E-002
  ** Hessian calculated **
 Line minimisation2
 ALPHA BEFORE:    1.0000000000000000
  ** Opt : line minimisation
left   ...       0.00000000    -468.59699413
centre ...       0.10000000    -468.59681960
right  ...      -0.10000000    -468.59699361

[...]

left   ...      -0.02463692    -468.59699400
centre ...       0.00000000    -468.59699413
right  ...       0.10000000    -468.59681960
new    ...      -0.01214127    -468.59699407

__s__    ...       0.01249565

 ALPHA AFTER:   -1.2141268749008382E-002

  **** Conditions for a minimum have not been satisfied. However ****
  **** no lower point can be found - treat results with caution  ****
  **** unless gradient norm is small (less than 0.1)             ****

  Final energy =    -468.59699413 eV
  Final Gnorm  =       0.00129164

  Components of energy :

  Interatomic potentials     =          73.12357263 eV
  Monopole - monopole (real) =        -279.06664163 eV
  Monopole - monopole (recip)=        -262.65392513 eV
  Monopole - monopole (total)=        -541.72056676 eV
  Total lattice energy       =        -468.59699413 eV
  Total lattice energy       =          -45212.4468 kJ/(mole unit cells)

  Final fractional coordinates of atoms :

   No.  Atomic        x           y          z          Radius
        Label       (Frac)      (Frac)     (Frac)       (Angs)
     1  O     c     0.000000    0.333330    0.833330    0.000000
     2  O     c     0.798394    0.642513    0.233205    0.000000
     3  O     c     0.439240    0.689251    0.421627    0.000000
     4  O     c     0.236963    0.006942    0.068069    0.000000
     5  O     c     0.680364    0.320115    0.490753    0.000000
     6  O     c     0.408782    0.388098    0.119312    0.000000
     7  O     c     0.434571    0.201201    0.751022    0.000000
     8  O     c     0.755290    0.050406    0.968748    0.000000
     9  O     c     0.866605    0.980576    0.610132    0.000000
    10  Sr    c     0.618612    0.984980    0.261701    0.000000
    11  Sr    c     0.929713    0.728756    0.912564    0.000000
    12  Sr    c     0.122206    0.863581    0.403238    0.000000
    13  Ti    c     0.583547    0.507233    0.324537    0.000000
    14  Ti    c     0.254273    0.227516    0.931645    0.000000
    15  Ti    c     0.737739    0.177597    0.732381    0.000000

  Final Cartesian lattice vectors (Angstroms) :

        6.216389   -0.156266   -0.318947
       -0.156266    6.850273   -0.009266
       -0.637894   -0.018531    6.753040

  Final cell parameters and derivatives :

       a            6.226527 Angstrom     dE/de1(xx)    -0.004053 eV/strain
       b            6.852061 Angstrom     dE/de2(yy)    -0.005447 eV/strain
       c            6.783127 Angstrom     dE/de3(zz)    -0.014909 eV/strain
       alpha       90.110744 Degrees      dE/de4(yz)    -0.010861 eV/strain
       beta        98.326648 Degrees      dE/de5(xz)     0.004764 eV/strain
       gamma       92.739187 Degrees      dE/de6(xy)    -0.000380 eV/strain

  Primitive cell volume =           286.009663 Angs**3

  Density of cell =      3.196190 g/cm**3

  Non-primitive cell volume =           286.009663 Angs**3

  Final internal derivatives :

   No.  Atomic          a             b             c           Radius
        Label          (eV)          (eV)          (eV)        (eV/Angs)
      1 O     c       0.000000      0.000000      0.000000      0.000000
      2 O     c       0.001922     -0.000518      0.006210      0.000000
      3 O     c       0.007922     -0.009145     -0.009507      0.000000
      4 O     c       0.002924      0.000375     -0.000609      0.000000
      5 O     c       0.010162     -0.013788      0.000430      0.000000
      6 O     c       0.001833     -0.004712     -0.003859      0.000000
      7 O     c      -0.023028      0.015400      0.015532      0.000000
      8 O     c       0.018138     -0.011165     -0.011490      0.000000
      9 O     c      -0.012238      0.000584      0.013626      0.000000
     10 Sr    c       0.003216      0.002168     -0.000583      0.000000
     11 Sr    c      -0.007153      0.010290      0.007435      0.000000
     12 Sr    c      -0.004641      0.000042      0.000236      0.000000
     13 Ti    c      -0.011784      0.012799     -0.003394      0.000000
     14 Ti    c       0.015557      0.002960      0.001482      0.000000
     15 Ti    c       0.003795     -0.003036     -0.006490      0.000000
  Maximum abs         0.023028      0.015400      0.015532      0.000000

  Time to end of optimisation =       0.9983 seconds

 Exiting ------OPTIONS------

  Timing analysis for GULP :

  Task / Subroutine                                          Time (Seconds)
  Calculation of reciprocal space energy and derivatives          0.1086
  Calculation of real space energy and derivatives                0.8671
  Calculation and manipulation of Hessian matrix                  0.0002
  Calculation of matrix inversion                                 0.0006
  Global summation overhead                                       0.0006

  Job Finished at 16:29.47  3rd February   2020