  Job Started  at 13:26.51 21st February   2020

  Number of CPUs =     1

  Total number of configurations input =      1

*  Input for Configuration =   1                                               *

  Formula = Sr3Ti3O9

  Number of irreducible atoms/shells =      15

  Total number atoms/shells =      15

  Dimensionality = 3               :  Bulk

  Cartesian lattice vectors (Angstroms) :

       12.000000    0.000000    0.000000
        0.000000    4.000000    0.000000
        0.000000    0.000000    4.000000

  Cell parameters (Angstroms/Degrees):

  a =      12.0000    alpha =  90.0000
  b =       4.0000    beta  =  90.0000
  c =       4.0000    gamma =  90.0000

  Initial cell volume =         192.000000 Angs**3

  Temperature of configuration =  0.000     K

  Pressure of configuration =         0.000 GPa

  Fractional coordinates of asymmetric unit :

   No.  Atomic       x           y          z         Charge      Occupancy
        Label      (Frac)      (Frac)     (Frac)        (e)         (Frac)
      1 Sr    c    0.999850    0.000360    0.999990     2.00000    1.000000
      2 Ti    c    0.166710 *  0.500030 *  0.500050 *   4.00000    1.000000
      3 O     c    0.000050 *  0.500680 *  0.500190 *  -2.00000    1.000000
      4 O     c    0.166570 *  0.999870 *  0.499700 *  -2.00000    1.000000
      5 O     c    0.166600 *  0.499850 *  0.999910 *  -2.00000    1.000000
      6 Sr    c    0.333370 *  0.000290 *  0.999980 *   2.00000    1.000000
      7 Ti    c    0.500060 *  0.500190 *  0.500580 *   4.00000    1.000000
      8 O     c    0.333440 *  0.499320 *  0.500160 *  -2.00000    1.000000
      9 O     c    0.500070 *  0.000580 *  0.500650 *  -2.00000    1.000000
     10 O     c    0.500040 *  0.499980 *  0.999500 *  -2.00000    1.000000
     11 Sr    c    0.666980 *  0.000650 *  0.999700 *   2.00000    1.000000
     12 Ti    c    0.833180 *  0.500010 *  0.500730 *   4.00000    1.000000
     13 O     c    0.666770 *  0.499940 *  0.500100 *  -2.00000    1.000000
     14 O     c    0.833490 *  0.000170 *  0.499850 *  -2.00000    1.000000
     15 O     c    0.833340 *  0.499170 *  0.000420 *  -2.00000    1.000000

*  General input information                                                   *

  Species output for all configurations :

  Species    Type    Atomic    Atomic    Charge       Radii (Angs)     Library
                     Number     Mass       (e)     Cova   Ionic  VDW   Symbol
    Sr       Core       38      87.62   2.000000   1.120  0.000  1.670
    Ti       Core       22      47.88   4.000000   1.470  0.000  2.190
    O        Core        8      16.00  -2.000000   0.730  0.000  1.360

  Lattice summation method               =    Ewald          (3-D)
                                         =    Parry          (2-D)
                                         =    Saunders et al (1-D)
  Accuracy factor for lattice sums       =   12.000

  Time limit = Infinity

  Maximum range for interatomic potentials =    100000.000000 Angstroms

  General interatomic potentials :

Atom  Types   Potential      Parameter       Value         Units   Cutoffs(Ang)
  1     2                                                            Min /  Max
O    c Sr   c Buckingham    Buckingham A     1952.3900    eV        0.000 10.000
                            Buckingham rho  0.33685000    Ang
                            Buckingham C     19.220000    eV*Ang^6
O    c Ti   c Buckingham    Buckingham A     4590.7279    eV        0.000 10.000
                            Buckingham rho  0.26100000    Ang
                            Buckingham C     0.0000000    eV*Ang^6
O    c O    c Buckingham    Buckingham A     1388.7700    eV        0.000 10.000
                            Buckingham rho  0.36262000    Ang
                            Buckingham C     175.00000    eV*Ang^6
 Calling ------OPTIONS------

*  Output for configuration   1                                                *

  Components of energy :

  Interatomic potentials     =          59.32167851 eV
  Monopole - monopole (real) =        -234.57426617 eV
  Monopole - monopole (recip)=        -300.12329799 eV
  Monopole - monopole (total)=        -534.69756416 eV
  Total lattice energy       =        -475.37588565 eV
  Total lattice energy       =          -45866.5062 kJ/(mole unit cells)

  Number of variables =       48

  Maximum number of calculations  =          1000
  Maximum Hessian update interval =            10
  Maximum step size               =   0.001000000
  Maximum parameter tolerance     =   0.000010000
  Maximum function  tolerance     =   0.000010000
  Maximum gradient  tolerance     =   0.001000000
  Maximum gradient  component     =   0.010000000

  Cell parameters to be optimised using strains

  Conjugate gradient optimiser to be used

  Lower half triangular hessian to be used

  Minimiser to switch to BFGS with exact hessian
  When gradient norm is less than     0.500000

  Switch max step size to       0.10000000 when gnorm is less than    10.000000

  Start of bulk optimisation :

  ** Hessian calculated **
 ALPHA BEFORE:    1.0000000000000000
 XC BEFORE:   0.16670999999996639
  ** Opt : line minimisation
left   ...       0.00000000    -475.37588565
centre ...       0.10000000    -475.41318517
right  ...       0.20000000    -475.44656065

left   ...       0.00000000    -475.37588565
centre ...       0.10000000    -475.41318517
right  ...       0.20000000    -475.44656065
new    ...       0.30000000    -475.47596812

__s__    ...       0.10000000

[...]

 ALPHA AFTER:   0.50000000000000000
 XC AFTER:   0.16661039864640062
 SANITY CHECK:   0.49999999999997768
 DIRECTION dim            1  value   -1.9920270713153832E-004
 DIRECTION dim            2  value    3.3671695911261689E-004
 DIRECTION dim            3  value   -6.6714320099262077E-005
 DIRECTION dim            4  value   -2.1871194486647064E-004
 DIRECTION dim            5  value   -2.9057262473600697E-004
 DIRECTION dim            6  value   -1.9380885240472085E-004
 DIRECTION dim            7  value   -6.6255809546422853E-005
 DIRECTION dim            8  value    5.3482723133670173E-004
 DIRECTION dim            9  value    2.9849537378488159E-004
 DIRECTION dim           10  value   -9.6277260270358068E-005
 DIRECTION dim           11  value    5.4470668909715201E-004
 DIRECTION dim           12  value    1.0249148790264989E-004
 DIRECTION dim           13  value   -2.0060385035917282E-004
 DIRECTION dim           14  value    2.5896316392653068E-005
 DIRECTION dim           15  value    3.3485099463036008E-006
 DIRECTION dim           16  value   -2.2097915648560412E-004
 DIRECTION dim           17  value    2.3297564931354798E-004
 DIRECTION dim           18  value   -6.9680855815576958E-004
 DIRECTION dim           19  value   -2.8176290384279549E-004
 DIRECTION dim           20  value    1.0758924046345565E-003
 DIRECTION dim           21  value   -1.6650058191632438E-004
 DIRECTION dim           22  value   -2.3946196390721577E-004
 DIRECTION dim           23  value   -2.5724771933633561E-004
 DIRECTION dim           24  value   -6.6597779911075803E-004
 DIRECTION dim           25  value   -2.0864827028480238E-004
 DIRECTION dim           26  value    4.0801655398536082E-004
 DIRECTION dim           27  value    6.3093975006179909E-004
 DIRECTION dim           28  value   -4.8966097369616964E-004
 DIRECTION dim           29  value   -3.4174060206688007E-004
 DIRECTION dim           30  value    3.1381186253307501E-004
 DIRECTION dim           31  value    1.2517139154205934E-005
 DIRECTION dim           32  value    3.9762367630125962E-004
 DIRECTION dim           33  value   -7.4905520425376764E-004
 DIRECTION dim           34  value   -2.8459105501306035E-004
 DIRECTION dim           35  value    4.6113129809366443E-004
 DIRECTION dim           36  value   -1.1538038866580043E-004
 DIRECTION dim           37  value   -3.0982920798925865E-004
 DIRECTION dim           38  value    1.9378818459464607E-004
 DIRECTION dim           39  value    1.4283331562218212E-004
 DIRECTION dim           40  value   -1.6003324713462336E-004
 DIRECTION dim           41  value    1.2350188909618831E-003
 DIRECTION dim           42  value   -3.9910787885110186E-004
 DIRECTION dim           43  value   -1.1341138287438450E-002
 DIRECTION dim           44  value   -1.1342331032216418E-002
 DIRECTION dim           45  value   -1.1351343763021042E-002
 DIRECTION dim           46  value    5.1167977366926044E-007
 DIRECTION dim           47  value   -2.3979569478132708E-007
 DIRECTION dim           48  value   -3.0062717776033499E-007
 ALPHA BEFORE:    1.0459011235009852
 XC BEFORE:   0.16661039864640062
  ** Opt : line minimisation
left   ...       0.00000000    -475.52270119
centre ...       0.10000000    -475.53145810
right  ...       0.20000000    -475.53927204

[...]

 ALPHA AFTER:   0.30000000000000004
 XC AFTER:   0.16651700537609362
 SANITY CHECK:   0.29999999998857230
 DIRECTION dim            1  value   -4.8393906855915184E-007
 DIRECTION dim            2  value    8.5536220085272352E-007
 DIRECTION dim            3  value   -1.1780314203703286E-007
 DIRECTION dim            4  value   -4.3673086807360403E-007
 DIRECTION dim            5  value   -1.0658250845654557E-006
 DIRECTION dim            6  value   -5.6815849975982173E-007
 DIRECTION dim            7  value   -6.5768969597346367E-008
 DIRECTION dim            8  value    1.0763492016509878E-006
 DIRECTION dim            9  value    7.4977454101707066E-007
 DIRECTION dim           10  value   -1.4757430700235710E-007
 DIRECTION dim           11  value    1.1809473392537045E-006
 DIRECTION dim           12  value    1.0198225729520858E-007
 DIRECTION dim           13  value   -4.0794769817205384E-007
 DIRECTION dim           14  value    5.0326056735720905E-007
 DIRECTION dim           15  value    4.0872705933403600E-008
 DIRECTION dim           16  value   -4.9394946326499300E-007
 DIRECTION dim           17  value    9.0839390702076409E-008
 DIRECTION dim           18  value   -9.6373786735966778E-007
 DIRECTION dim           19  value   -5.4718310334810157E-007
 DIRECTION dim           20  value    2.6155422912034963E-006
 DIRECTION dim           21  value   -4.5169898810701884E-007
 DIRECTION dim           22  value   -4.7539709959452511E-007
 DIRECTION dim           23  value   -3.9823870520700682E-007
 DIRECTION dim           24  value   -1.7035312411667272E-006
 DIRECTION dim           25  value   -3.9968006083183156E-007
 DIRECTION dim           26  value    8.6352266661071947E-007
 DIRECTION dim           27  value    5.7545954324071737E-007
 DIRECTION dim           28  value   -1.0809267623305211E-006
 DIRECTION dim           29  value   -4.1779244345323659E-007
 DIRECTION dim           30  value    6.0308677224650668E-007
 DIRECTION dim           31  value   -4.4203526461548826E-008
 DIRECTION dim           32  value    6.5520549247439775E-007
 DIRECTION dim           33  value   -1.9718231023322551E-006
 DIRECTION dim           34  value   -5.0044272126688936E-007
 DIRECTION dim           35  value    8.7614948227537157E-007
 DIRECTION dim           36  value   -2.3095916546008904E-007
 DIRECTION dim           37  value   -8.1931911166361909E-007
 DIRECTION dim           38  value    4.7180865303772550E-007
 DIRECTION dim           39  value    3.8128627499189906E-007
 DIRECTION dim           40  value   -4.0661290036222766E-007
 DIRECTION dim           41  value    2.9477758382433058E-006
 DIRECTION dim           42  value   -1.3476666696595966E-006
 DIRECTION dim           43  value   -2.6227623808429586E-005
 DIRECTION dim           44  value   -2.6217386976809449E-005
 DIRECTION dim           45  value   -2.6194915695830170E-005
 DIRECTION dim           46  value   -7.0228493157834450E-009
 DIRECTION dim           47  value    2.0939020446445347E-009
 DIRECTION dim           48  value    1.0108136023813244E-009
  ** Hessian calculated **
 ALPHA BEFORE:    1.0000000000000000
 XC BEFORE:   0.16651700537609362
  ** Opt : line minimisation
left   ...       0.00000000    -475.56731768
centre ...       0.10000000    -475.56731779
right  ...       0.20000000    -475.56731789

[...]

 ALPHA AFTER:   0.30000000000000004
 XC AFTER:   0.16651690375686617
 SANITY CHECK:   0.29999999988759990
 DIRECTION dim            1  value   -3.3873075829172928E-007
 DIRECTION dim            2  value    5.9879135930803876E-007
 DIRECTION dim            3  value   -8.2622091801773247E-008
 DIRECTION dim            4  value   -3.0566194378889319E-007
 DIRECTION dim            5  value   -7.4613451373753285E-007
 DIRECTION dim            6  value   -3.9780067094393322E-007
 DIRECTION dim            7  value   -4.5999929060218963E-008
 DIRECTION dim            8  value    7.5339005761773360E-007
 DIRECTION dim            9  value    5.2470928369086912E-007
 DIRECTION dim           10  value   -1.0326335895925514E-007
 DIRECTION dim           11  value    8.2660032351921390E-007
 DIRECTION dim           12  value    7.1180924739704671E-008
 DIRECTION dim           13  value   -2.8549861868830043E-007
 DIRECTION dim           14  value    3.5244156173687652E-007
 DIRECTION dim           15  value    2.8549407039620694E-008
 DIRECTION dim           16  value   -3.4571883005211909E-007
 DIRECTION dim           17  value    6.3499213529662801E-008
 DIRECTION dim           18  value   -6.7445868023291447E-007
 DIRECTION dim           19  value   -3.8295604650430869E-007
 DIRECTION dim           20  value    1.8308030017042466E-006
 DIRECTION dim           21  value   -3.1627689307218730E-007
 DIRECTION dim           22  value   -3.3271275869926473E-007
 DIRECTION dim           23  value   -2.7862763776913059E-007
 DIRECTION dim           24  value   -1.1924725160877245E-006
 DIRECTION dim           25  value   -2.7971573754478381E-007
 DIRECTION dim           26  value    6.0442347612857020E-007
 DIRECTION dim           27  value    4.0240471327591860E-007
 DIRECTION dim           28  value   -7.5653657835838906E-007
 DIRECTION dim           29  value   -2.9225796986151985E-007
 DIRECTION dim           30  value    4.2199633622124103E-007
 DIRECTION dim           31  value   -3.0966161023740457E-008
 DIRECTION dim           32  value    4.5856786271629144E-007
 DIRECTION dim           33  value   -1.3804077710585663E-006
 DIRECTION dim           34  value   -3.5022191262361024E-007
 DIRECTION dim           35  value    6.1319860355326670E-007
 DIRECTION dim           36  value   -1.6171867015503457E-007
 DIRECTION dim           37  value   -5.7351262915219865E-007
 DIRECTION dim           38  value    3.3028529656205079E-007
 DIRECTION dim           39  value    2.6681303653956750E-007
 DIRECTION dim           40  value   -2.8461432067640224E-007
 DIRECTION dim           41  value    2.0633079325255143E-006
 DIRECTION dim           42  value   -9.4357770694666697E-007
 DIRECTION dim           43  value   -1.8558392120973669E-005
 DIRECTION dim           44  value   -1.8551142458697524E-005
 DIRECTION dim           45  value   -1.8535236256645416E-005
 DIRECTION dim           46  value   -4.9058298499193025E-009
 DIRECTION dim           47  value    1.4639417755439086E-009
 DIRECTION dim           48  value    7.0306965259174683E-010
 ALPHA BEFORE:   0.43521500872803420
 XC BEFORE:   0.16651690375686617
  ** Opt : line minimisation
left   ...       0.00000000    -475.56731797
centre ...       0.10000000    -475.56731802
right  ...       0.20000000    -475.56731807

left   ...       0.00000000    -475.56731797
centre ...       0.10000000    -475.56731802
right  ...       0.20000000    -475.56731807
new    ...       0.30000000    -475.56731811

__s__    ...       0.10000000

 ALPHA AFTER:   0.30000000000000004
 XC AFTER:   0.16651683262637884
 SANITY CHECK:   0.29999999994646426
 DIRECTION dim            1  value   -2.3710162448743542E-007
 DIRECTION dim            2  value    4.1909572508855284E-007
 DIRECTION dim            3  value   -5.7647296155367576E-008
 DIRECTION dim            4  value   -2.1395043455912864E-007
 DIRECTION dim            5  value   -5.2235014990941743E-007
 DIRECTION dim            6  value   -2.7837029742666271E-007
 DIRECTION dim            7  value   -3.2190383179494016E-008
 DIRECTION dim            8  value    5.2730642329135024E-007
 DIRECTION dim            9  value    3.6740487324810640E-007
 DIRECTION dim           10  value   -7.2274522998920622E-008
 DIRECTION dim           11  value    5.7857833311236487E-007
 DIRECTION dim           12  value    4.9979586530783457E-008
 DIRECTION dim           13  value   -1.9983832838355986E-007
 DIRECTION dim           14  value    2.4676842973624374E-007
 DIRECTION dim           15  value    2.0038782142450125E-008
 DIRECTION dim           16  value   -2.4198990446585683E-007
 DIRECTION dim           17  value    4.4351297391849885E-008
 DIRECTION dim           18  value   -4.7191178269156132E-007
 DIRECTION dim           19  value   -2.6805197305451968E-007
 DIRECTION dim           20  value    1.2815208538149936E-006
 DIRECTION dim           21  value   -2.2126734912828016E-007
 DIRECTION dim           22  value   -2.3288456517587111E-007
 DIRECTION dim           23  value   -1.9508026787254845E-007
 DIRECTION dim           24  value   -8.3460462835230957E-007
 DIRECTION dim           25  value   -1.9578763397725063E-007
 DIRECTION dim           26  value    4.2305738853173936E-007
 DIRECTION dim           27  value    2.8177277838521706E-007
 DIRECTION dim           28  value   -5.2955725667391194E-007
 DIRECTION dim           29  value   -2.0451619193684772E-007
 DIRECTION dim           30  value    2.9542908305194774E-007
 DIRECTION dim           31  value   -2.1675533934370043E-008
 DIRECTION dim           32  value    3.2089824164945462E-007
 DIRECTION dim           33  value   -9.6613788254383977E-007
 DIRECTION dim           34  value   -2.4513496834882526E-007
 DIRECTION dim           35  value    4.2918543492519249E-007
 DIRECTION dim           36  value   -1.1308393335355140E-007
 DIRECTION dim           37  value   -4.0145471883628389E-007
 DIRECTION dim           38  value    2.3113268313134588E-007
 DIRECTION dim           39  value    1.8686595814317812E-007
 DIRECTION dim           40  value   -1.9922555201597229E-007
 DIRECTION dim           41  value    1.4442554912959252E-006
 DIRECTION dim           42  value   -6.6038720278802579E-007
 DIRECTION dim           43  value   -1.2788976531647097E-005
 DIRECTION dim           44  value   -1.2783979347728418E-005
 DIRECTION dim           45  value   -1.2773018146808720E-005
 DIRECTION dim           46  value   -3.4525932757357120E-009
 DIRECTION dim           47  value    1.0303151068820553E-009
 DIRECTION dim           48  value    4.9455198816911325E-010

  **** Optimisation achieved ****

  Final energy =    -475.56731811 eV
  Final Gnorm  =       0.00036027

  Components of energy :

  Interatomic potentials     =          65.00501728 eV
  Monopole - monopole (real) =        -237.15141938 eV
  Monopole - monopole (recip)=        -303.42091601 eV
  Monopole - monopole (total)=        -540.57233539 eV
  Total lattice energy       =        -475.56731811 eV
  Total lattice energy       =          -45884.9765 kJ/(mole unit cells)

  Final fractional coordinates of atoms :

   No.  Atomic        x           y          z          Radius
        Label       (Frac)      (Frac)     (Frac)       (Angs)
     1  Sr    c     0.999850    0.000360    0.999990    0.000000
     2  Ti    c     0.166517    0.500360    0.499990    0.000000
     3  O     c     0.999850    0.500360    0.499990    0.000000
     4  O     c     0.166517    0.000360    0.499990    0.000000
     5  O     c     0.166517    0.500360    0.999990    0.000000
     6  Sr    c     0.333183    0.000360    0.999990    0.000000
     7  Ti    c     0.499850    0.500360    0.499990    0.000000
     8  O     c     0.333184    0.500359    0.499990    0.000000
     9  O     c     0.499850    0.000360    0.499991    0.000000
    10  O     c     0.499850    0.500360    0.999990    0.000000
    11  Sr    c     0.666517    0.000360    0.999990    0.000000
    12  Ti    c     0.833183    0.500360    0.499991    0.000000
    13  O     c     0.666517    0.500360    0.499990    0.000000
    14  O     c     0.833184    0.000360    0.499990    0.000000
    15  O     c     0.833183    0.500359    0.999990    0.000000

  Final Cartesian lattice vectors (Angstroms) :

       11.869590   -0.000000   -0.000000
       -0.000000    3.956530    0.000000
       -0.000000    0.000000    3.956530

  Final cell parameters and derivatives :

       a           11.869590 Angstrom     dE/de1(xx)     0.009818 eV/strain
       b            3.956530 Angstrom     dE/de2(yy)     0.009817 eV/strain
       c            3.956530 Angstrom     dE/de3(zz)     0.009815 eV/strain
       alpha       90.000000 Degrees      dE/de4(yz)     0.000001 eV/strain
       beta        90.000000 Degrees      dE/de5(xz)    -0.000000 eV/strain
       gamma       90.000000 Degrees      dE/de6(xy)    -0.000000 eV/strain

  Primitive cell volume =           185.808082 Angs**3

  Density of cell =      4.919814 g/cm**3

  Non-primitive cell volume =           185.808082 Angs**3

  Final internal derivatives :

   No.  Atomic          a             b             c           Radius
        Label          (eV)          (eV)          (eV)        (eV/Angs)
      1 Sr    c       0.000000      0.000000      0.000000      0.000000
      2 Ti    c       0.001158      0.000004      0.000047      0.000000
      3 O     c       0.000469      0.000132     -0.000069      0.000000
      4 O     c      -0.000786     -0.000025     -0.000058      0.000000
      5 O     c      -0.000719     -0.000014     -0.000001      0.000000
      6 Sr    c       0.000157     -0.000010     -0.000017      0.000000
      7 Ti    c       0.000462      0.000124      0.000099      0.000000
      8 O     c       0.000151     -0.000222      0.000047      0.000000
      9 O     c      -0.000289      0.000249      0.000145      0.000000
     10 O     c      -0.000327     -0.000154     -0.000259      0.000000
     11 Sr    c       0.000441      0.000022     -0.000088      0.000000
     12 Ti    c      -0.002054      0.000048      0.000329      0.000000
     13 O     c      -0.000104     -0.000113     -0.000074      0.000000
     14 O     c       0.001077      0.000126     -0.000228      0.000000
     15 O     c       0.000812     -0.000200      0.000178      0.000000
  Maximum abs         0.002054      0.000249      0.000329      0.000000

  Time to end of optimisation =       0.0673 seconds

 Exiting ------OPTIONS------

  Timing analysis for GULP :

  Task / Subroutine                                          Time (Seconds)
  Calculation of reciprocal space energy and derivatives          0.0072
  Calculation of real space energy and derivatives                0.0526
  Calculation of matrix inversion                                 0.0001

  Job Finished at 13:26.51 21st February   2020