  Job Started  at 16:21.22  3rd February   2020

  Number of CPUs =     1

  Total number of configurations input =      1

*  Input for Configuration =   1                                               *

  Formula = O9Sr3Ti3

  Number of irreducible atoms/shells =      15

  Total number atoms/shells =      15

  Dimensionality = 3               :  Bulk

  Cartesian lattice vectors (Angstroms) :

        4.000000    0.000000    0.000000
        0.000000    4.000000    0.000000
        0.000000    0.000000    8.000000

  Cell parameters (Angstroms/Degrees):

  a =       4.0000    alpha =  90.0000
  b =       4.0000    beta  =  90.0000
  c =       8.0000    gamma =  90.0000

  Initial cell volume =         128.000000 Angs**3

  Temperature of configuration =  0.000     K

  Pressure of configuration =         0.000 GPa

  Fractional coordinates of asymmetric unit :

   No.  Atomic       x           y          z         Charge      Occupancy
        Label      (Frac)      (Frac)     (Frac)        (e)         (Frac)
      1 O     c    0.500000    0.500000    0.750000    -2.00000    1.000000
      2 O     c    0.500000 *  0.000000 *  0.750000 *  -2.00000    1.000000
      3 O     c    0.000000 *  0.500000 *  0.750000 *  -2.00000    1.000000
      4 O     c    0.000000 *  0.500000 *  0.000000 *  -2.00000    1.000000
      5 O     c    0.000000 *  0.000000 *  0.250000 *  -2.00000    1.000000
      6 O     c    0.500000 *  0.000000 *  0.250000 *  -2.00000    1.000000
      7 O     c    0.500000 *  0.500000 *  0.250000 *  -2.00000    1.000000
      8 O     c    0.500000 *  0.500000 *  0.500000 *  -2.00000    1.000000
      9 O     c    0.500000 *  0.000000 *  0.500000 *  -2.00000    1.000000
     10 Sr    c    0.250000 *  0.750000 *  0.375000 *   2.00000    1.000000
     11 Sr    c    0.250000 *  0.750000 *  0.875000 *   2.00000    1.000000
     12 Sr    c    0.250000 *  0.250000 *  0.625000 *   2.00000    1.000000
     13 Ti    c    0.250000 *  0.750000 *  0.625000 *   4.00000    1.000000
     14 Ti    c    0.750000 *  0.250000 *  0.875000 *   4.00000    1.000000
     15 Ti    c    0.750000 *  0.750000 *  0.375000 *   4.00000    1.000000

*  General input information                                                   *

  Species output for all configurations :

  Species    Type    Atomic    Atomic    Charge       Radii (Angs)     Library
                     Number     Mass       (e)     Cova   Ionic  VDW   Symbol
    O        Core        8      16.00  -2.000000   0.730  0.000  1.360
    Sr       Core       38      87.62   2.000000   1.120  0.000  1.670
    Ti       Core       22      47.88   4.000000   1.470  0.000  2.190

  Lattice summation method               =    Ewald          (3-D)
                                         =    Parry          (2-D)
                                         =    Saunders et al (1-D)
  Accuracy factor for lattice sums       =   12.000

  Time limit =      15.00 seconds

  Maximum range for interatomic potentials =    100000.000000 Angstroms

  General interatomic potentials :

Atom  Types   Potential      Parameter       Value         Units   Cutoffs(Ang)
  1     2                                                            Min /  Max
O    c Sr   c Buckingham    Buckingham A     1952.3900    eV        0.000 10.000
                            Buckingham rho  0.33685000    Ang
                            Buckingham C     19.220000    eV*Ang^6
O    c Ti   c Buckingham    Buckingham A     4590.7279    eV        0.000 10.000
                            Buckingham rho  0.26100000    Ang
                            Buckingham C     0.0000000    eV*Ang^6
O    c O    c Buckingham    Buckingham A     1388.7700    eV        0.000 10.000
                            Buckingham rho  0.36262000    Ang
                            Buckingham C     175.00000    eV*Ang^6
 Calling ------OPTIONS------

*  Output for configuration   1                                                *

  Components of energy :

  Interatomic potentials     =         283.74069147 eV
  Monopole - monopole (real) =        -200.67401279 eV
  Monopole - monopole (recip)=        -313.23454466 eV
  Monopole - monopole (total)=        -513.90855745 eV
  Total lattice energy       =        -230.16786598 eV
  Total lattice energy       =          -22207.6806 kJ/(mole unit cells)

  Number of variables =       48

  Maximum number of calculations  =          1000
  Maximum Hessian update interval =            10
  Maximum step size               =   1.000000000
  Maximum parameter tolerance     =   0.000010000
  Maximum function  tolerance     =   0.000010000
  Maximum gradient  tolerance     =   0.001000000
  Maximum gradient  component     =   0.010000000

  Cell parameters to be optimised using strains

  Newton-Raphson optimiser to be used

  BFGS hessian update to be used

  Lower half triangular hessian to be used

  Start of bulk optimisation :

  ** Hessian calculated **
 Line minimisation2
 ALPHA BEFORE:    1.0000000000000000
  ** Opt : line minimisation
left   ...       0.00000000    -230.16786598
centre ...       0.25000000    -282.18847906
right  ...       0.50000000    -319.03327522

left   ...       0.00000000    -230.16786598
centre ...       0.25000000    -282.18847906
right  ...       0.50000000    -319.03327522
new    ...       0.98196561    -358.58070466

__s__    ...       0.48196561

[...]

 ALPHA AFTER:    1.5674042425750139
  ** Hessian calculated **
 Line minimisation2
 ALPHA BEFORE:    1.0000000000000000
  ** Opt : line minimisation
left   ...       0.00000000    -371.70634515
centre ...       0.25000000    -369.80206967
right  ...      -0.25000000    -373.59110449

[...]

 ALPHA AFTER:   0.47685067108025103
 Line minimisation2
 ALPHA BEFORE:   0.61032781722294349
  ** Opt : line minimisation
left   ...       0.00000000    -451.25268614
centre ...       0.15258195    -453.13098239
right  ...       0.30516391    -454.31046104

[...]

 ALPHA AFTER:   0.80998842449128994
  ** Hessian calculated **
 Line minimisation2
 ALPHA BEFORE:    1.0000000000000000
  ** Opt : line minimisation
left   ...       0.00000000    -470.01184357
centre ...       0.25000000    -470.01301883
right  ...       0.50000000    -470.01367422

[...]

 ALPHA AFTER:    1.0417465275353954
 Line minimisation2
 ALPHA BEFORE:    4.0491857141682326
  ** Opt : line minimisation
left   ...       0.00000000    -470.01427652
centre ...       1.00000000    -470.01427795
right  ...       2.00000000    -470.01427728

left   ...       0.00000000    -470.01427652
centre ...       1.00000000    -470.01427795
right  ...       2.00000000    -470.01427728
new    ...       1.18113504    -470.01427799

__s__    ...      -0.81886496

 ALPHA AFTER:    1.1811350419299926

  **** Optimisation achieved ****

  Final energy =    -470.01427799 eV
  Final Gnorm  =       0.00021065

  Components of energy :

  Interatomic potentials     =          69.57873161 eV
  Monopole - monopole (real) =        -255.33144816 eV
  Monopole - monopole (recip)=        -284.26156143 eV
  Monopole - monopole (total)=        -539.59300960 eV
  Total lattice energy       =        -470.01427799 eV
  Total lattice energy       =          -45349.1930 kJ/(mole unit cells)

  Final fractional coordinates of atoms :

   No.  Atomic        x           y          z          Radius
        Label       (Frac)      (Frac)     (Frac)       (Angs)
     1  O     c     0.500000    0.500000    0.750000    0.000000
     2  O     c     0.506036    0.012719    0.762780    0.000000
     3  O     c     0.936583    0.721468    0.654847    0.000000
     4  O     c     0.942117    0.284335    0.927363    0.000000
     5  O     c     0.970164    0.807124    0.201550    0.000000
     6  O     c     0.526289    0.063649    0.099535    0.000000
     7  O     c     0.533837    0.552132    0.076927    0.000000
     8  O     c     0.478490    0.624038    0.407789    0.000000
     9  O     c     0.702056    0.020545    0.443935    0.000000
    10  Sr    c     0.151523    0.330238    0.226129    0.000000
    11  Sr    c     0.144177    0.772345    0.927934    0.000000
    12  Sr    c     0.076018    0.250875    0.625873    0.000000
    13  Ti    c     0.607915    0.763585    0.613517    0.000000
    14  Ti    c     0.601071    0.287215    0.922748    0.000000
    15  Ti    c     0.640262    0.819864    0.239329    0.000000

  Final Cartesian lattice vectors (Angstroms) :

        5.330053   -0.195464   -0.121667
       -0.195464    5.256066   -0.142239
       -0.243334   -0.284478    8.074926

  Final cell parameters and derivatives :

       a            5.335024 Angstrom     dE/de1(xx)     0.005863 eV/strain
       b            5.261622 Angstrom     dE/de2(yy)     0.003761 eV/strain
       c            8.083599 Angstrom     dE/de3(zz)     0.001383 eV/strain
       alpha       93.499565 Degrees      dE/de4(yz)     0.000390 eV/strain
       beta        92.955809 Degrees      dE/de5(xz)    -0.000330 eV/strain
       gamma       94.191890 Degrees      dE/de6(xy)     0.002011 eV/strain

  Primitive cell volume =           225.526627 Angs**3

  Density of cell =      4.053363 g/cm**3

  Non-primitive cell volume =           225.526627 Angs**3

  Final internal derivatives :

   No.  Atomic          a             b             c           Radius
        Label          (eV)          (eV)          (eV)        (eV/Angs)
      1 O     c       0.000000      0.000000      0.000000      0.000000
      2 O     c      -0.000344      0.000228      0.000295      0.000000
      3 O     c       0.003187      0.000220     -0.000332      0.000000
      4 O     c       0.002974     -0.000512     -0.000360      0.000000
      5 O     c       0.002096     -0.000729     -0.000439      0.000000
      6 O     c      -0.000006     -0.000293      0.000254      0.000000
      7 O     c      -0.000531      0.000162     -0.000340      0.000000
      8 O     c      -0.000920     -0.001448     -0.000006      0.000000
      9 O     c       0.000548      0.001224     -0.000224      0.000000
     10 Sr    c       0.000084      0.000349      0.000925      0.000000
     11 Sr    c      -0.000183      0.000243      0.000055      0.000000
     12 Sr    c      -0.000081      0.000142     -0.001183      0.000000
     13 Ti    c      -0.002072      0.000304     -0.000375      0.000000
     14 Ti    c      -0.002087      0.000491     -0.000109      0.000000
     15 Ti    c      -0.002171      0.000340      0.000858      0.000000
  Maximum abs         0.003187      0.001448      0.001183      0.000000

  Time to end of optimisation =       0.4518 seconds

 Exiting ------OPTIONS------

  Timing analysis for GULP :

  Task / Subroutine                                          Time (Seconds)
  Calculation of reciprocal space energy and derivatives          0.0453
  Calculation of real space energy and derivatives                0.3891
  Calculation and manipulation of Hessian matrix                  0.0002
  Calculation of matrix inversion                                 0.0007
  Global summation overhead                                       0.0002

  Job Finished at 16:21.22  3rd February   2020