  Job Started  at 12:02.26  4th February   2020

  Number of CPUs =     1

  Total number of configurations input =      1

*  Input for Configuration =   1                                               *

  Formula = O9Sr3Ti3

  Number of irreducible atoms/shells =      15

  Total number atoms/shells =      15

  Dimensionality = 3               :  Bulk

  Cartesian lattice vectors (Angstroms) :

        4.000000    0.000000    0.000000
        0.000000    4.000000    0.000000
        0.000000    0.000000    8.000000

  Cell parameters (Angstroms/Degrees):

  a =       4.0000    alpha =  90.0000
  b =       4.0000    beta  =  90.0000
  c =       8.0000    gamma =  90.0000

  Initial cell volume =         128.000000 Angs**3

  Temperature of configuration =  0.000     K

  Pressure of configuration =         0.000 GPa

  Fractional coordinates of asymmetric unit :

   No.  Atomic       x           y          z         Charge      Occupancy
        Label      (Frac)      (Frac)     (Frac)        (e)         (Frac)
      1 O     c    0.000000    0.500000    0.250000    -2.00000    1.000000
      2 O     c    0.500000 *  0.500000 *  0.250000 *  -2.00000    1.000000
      3 O     c    0.000000 *  0.500000 *  0.500000 *  -2.00000    1.000000
      4 O     c    0.500000 *  0.000000 *  0.500000 *  -2.00000    1.000000
      5 O     c    0.500000 *  0.500000 *  0.750000 *  -2.00000    1.000000
      6 O     c    0.000000 *  0.000000 *  0.000000 *  -2.00000    1.000000
      7 O     c    0.000000 *  0.000000 *  0.500000 *  -2.00000    1.000000
      8 O     c    0.500000 *  0.000000 *  0.000000 *  -2.00000    1.000000
      9 O     c    0.000000 *  0.500000 *  0.750000 *  -2.00000    1.000000
     10 Sr    c    0.750000 *  0.250000 *  0.375000 *   2.00000    1.000000
     11 Sr    c    0.750000 *  0.750000 *  0.875000 *   2.00000    1.000000
     12 Sr    c    0.750000 *  0.750000 *  0.125000 *   2.00000    1.000000
     13 Ti    c    0.750000 *  0.250000 *  0.875000 *   4.00000    1.000000
     14 Ti    c    0.250000 *  0.250000 *  0.125000 *   4.00000    1.000000
     15 Ti    c    0.250000 *  0.750000 *  0.125000 *   4.00000    1.000000

*  General input information                                                   *

  Species output for all configurations :

  Species    Type    Atomic    Atomic    Charge       Radii (Angs)     Library
                     Number     Mass       (e)     Cova   Ionic  VDW   Symbol
    O        Core        8      16.00  -2.000000   0.730  0.000  1.360
    Sr       Core       38      87.62   2.000000   1.120  0.000  1.670
    Ti       Core       22      47.88   4.000000   1.470  0.000  2.190

  Lattice summation method               =    Ewald          (3-D)
                                         =    Parry          (2-D)
                                         =    Saunders et al (1-D)
  Accuracy factor for lattice sums       =   12.000

  Time limit = Infinity

  Maximum range for interatomic potentials =    100000.000000 Angstroms

  General interatomic potentials :

Atom  Types   Potential      Parameter       Value         Units   Cutoffs(Ang)
  1     2                                                            Min /  Max
O    c Sr   c Buckingham    Buckingham A     1952.3900    eV        0.000 10.000
                            Buckingham rho  0.33685000    Ang
                            Buckingham C     19.220000    eV*Ang^6
O    c Ti   c Buckingham    Buckingham A     4590.7279    eV        0.000 10.000
                            Buckingham rho  0.26100000    Ang
                            Buckingham C     0.0000000    eV*Ang^6
O    c O    c Buckingham    Buckingham A     1388.7700    eV        0.000 10.000
                            Buckingham rho  0.36262000    Ang
                            Buckingham C     175.00000    eV*Ang^6
 Calling ------OPTIONS------

*  Output for configuration   1                                                *

  Components of energy :

  Interatomic potentials     =         252.05488473 eV
  Monopole - monopole (real) =        -121.78183040 eV
  Monopole - monopole (recip)=        -176.23510212 eV
  Monopole - monopole (total)=        -298.01693251 eV
  Total lattice energy       =         -45.96204778 eV
  Total lattice energy       =           -4434.6350 kJ/(mole unit cells)

  Number of variables =       48

  Maximum number of calculations  =          1000
  Maximum Hessian update interval =            10
  Maximum step size               =   1.000000000
  Maximum parameter tolerance     =   0.000010000
  Maximum function  tolerance     =   0.000010000
  Maximum gradient  tolerance     =   0.001000000
  Maximum gradient  component     =   0.010000000

  Cell parameters to be optimised using strains

  Conjugate gradient optimiser to be used

  Lower half triangular hessian to be used

  Minimiser to switch to BFGS with exact hessian
  When gradient norm is less than     0.500000

  Start of bulk optimisation :

 Perform trimming
 Line minimisation2
 ALPHA BEFORE:    1.0000000000000000
  ** Opt : line minimisation
left   ...       0.00000000     -45.96204778
centre ...       0.25000000    -151.94574012
right  ...       0.50000000    -221.62406934

left   ...       0.00000000     -45.96204778
centre ...       0.25000000    -151.94574012
right  ...       0.50000000    -221.62406934
new    ...       0.85480741    -287.03404440

__s__    ...       0.35480741

[...]

 ALPHA AFTER:    1.2682182118296077
 Perform trimming
 Line minimisation2
 ALPHA BEFORE:    1.2682182118296077
  ** Opt : line minimisation
left   ...       0.00000000    -314.48515249
centre ...       0.31705455    -370.80072688
right  ...       0.63410911    -378.00898542

[...]

 ALPHA AFTER:   0.52212094790919983
 Line minimisation2
 ALPHA BEFORE:   0.52212094790919983
  ** Opt : line minimisation
left   ...       0.00000000    -379.91588132
centre ...       0.13053024    -397.25641924
right  ...       0.26106047    -408.42393032

[...]

 ALPHA AFTER:   0.52664981774159758
 Perform trimming
 Line minimisation2
 ALPHA BEFORE:   0.52664981774159758
  ** Opt : line minimisation
left   ...       0.00000000    -455.84770630
centre ...       0.13166245    -456.31666169
right  ...       0.26332491    -456.54907495

[...]

 ALPHA AFTER:   0.39805117437187598
  ** Hessian calculated **
 Line minimisation2
 ALPHA BEFORE:    1.0000000000000000
  ** Opt : line minimisation
left   ...       0.00000000    -465.83807285
centre ...       0.25000000    -465.93102446
right  ...       0.50000000    -465.98192330

[...]

 ALPHA AFTER:   0.54373907229351681
  ** Hessian calculated **
 Line minimisation2
 ALPHA BEFORE:    1.0000000000000000
  ** Opt : line minimisation
left   ...       0.00000000    -472.39624988
centre ...       0.25000000    -472.43348623
right  ...       0.50000000    -472.46499942

[...]

 ALPHA AFTER:    1.0592338473400058
 Line minimisation2
 ALPHA BEFORE:    2.9553393958468868
  ** Opt : line minimisation
left   ...       0.00000000    -472.53016923
centre ...       0.73883485    -472.53017068
right  ...       1.47766970    -472.53016955

left   ...       0.00000000    -472.53016923
centre ...       0.73883485    -472.53017068
right  ...       1.47766970    -472.53016955
new    ...       0.78500649    -472.53017069

__s__    ...      -0.69266321

 ALPHA AFTER:   0.78500649234661801

  **** Optimisation achieved ****

  Final energy =    -472.53017069 eV
  Final Gnorm  =       0.00033570

  Components of energy :

  Interatomic potentials     =          69.66116761 eV
  Monopole - monopole (real) =        -259.20315868 eV
  Monopole - monopole (recip)=        -282.98817962 eV
  Monopole - monopole (total)=        -542.19133830 eV
  Total lattice energy       =        -472.53017069 eV
  Total lattice energy       =          -45591.9382 kJ/(mole unit cells)

  Final fractional coordinates of atoms :

   No.  Atomic        x           y          z          Radius
        Label       (Frac)      (Frac)     (Frac)       (Angs)
     1  O     c     0.000000    0.500000    0.250000    0.000000
     2  O     c     0.401111    0.555801    0.229270    0.000000
     3  O     c     0.220951    0.593009    0.566937    0.000000
     4  O     c     0.339954    0.079421    0.509580    0.000000
     5  O     c     0.816651    0.498815    0.722366    0.000000
     6  O     c     0.118992    0.986418    0.192645    0.000000
     7  O     c     0.938840    0.023637    0.530314    0.000000
     8  O     c     0.523285    0.080621    0.037220    0.000000
     9  O     c     0.169968    0.289716    0.879793    0.000000
    10  Sr    c     0.669970    0.289721    0.379795    0.000000
    11  Sr    c     0.595416    0.909989    0.710499    0.000000
    12  Sr    c     0.744528    0.669451    0.049090    0.000000
    13  Ti    c     0.096572    0.324868    0.655350    0.000000
    14  Ti    c     0.243366    0.254567    0.104237    0.000000
    15  Ti    c     0.169975    0.789716    0.379792    0.000000

  Final Cartesian lattice vectors (Angstroms) :

        5.911678    0.063485    0.166035
        0.063485    5.207144   -0.518065
        0.332069   -1.036131    7.549449

  Final cell parameters and derivatives :

       a            5.914349 Angstrom     dE/de1(xx)     0.003636 eV/strain
       b            5.233237 Angstrom     dE/de2(yy)     0.004366 eV/strain
       c            7.627451 Angstrom     dE/de3(zz)     0.000603 eV/strain
       alpha      103.451356 Degrees      dE/de4(yz)    -0.001765 eV/strain
       beta        85.994956 Degrees      dE/de5(xz)    -0.000183 eV/strain
       gamma       88.852450 Degrees      dE/de6(xy)     0.001526 eV/strain

  Primitive cell volume =           228.881695 Angs**3

  Density of cell =      3.993947 g/cm**3

  Non-primitive cell volume =           228.881695 Angs**3

  Final internal derivatives :

   No.  Atomic          a             b             c           Radius
        Label          (eV)          (eV)          (eV)        (eV/Angs)
      1 O     c       0.000000      0.000000      0.000000      0.000000
      2 O     c       0.004163      0.000967      0.001415      0.000000
      3 O     c       0.003204      0.002795     -0.003266      0.000000
      4 O     c       0.006744     -0.001794     -0.002963      0.000000
      5 O     c      -0.003960     -0.000207      0.000782      0.000000
      6 O     c      -0.001036     -0.001571      0.001161      0.000000
      7 O     c      -0.002224      0.000594     -0.003394      0.000000
      8 O     c       0.000156      0.001031      0.000641      0.000000
      9 O     c       0.000043     -0.000316      0.002582      0.000000
     10 Sr    c       0.000007      0.000184      0.000866      0.000000
     11 Sr    c      -0.000420     -0.000558      0.001452      0.000000
     12 Sr    c       0.000701      0.000373     -0.001579      0.000000
     13 Ti    c      -0.004450     -0.000967      0.004971      0.000000
     14 Ti    c       0.000168      0.002325     -0.002771      0.000000
     15 Ti    c      -0.000427     -0.000135      0.001859      0.000000
  Maximum abs         0.006744      0.002795      0.004971      0.000000

  Time to end of optimisation =       0.3113 seconds

 Exiting ------OPTIONS------

  Timing analysis for GULP :

  Task / Subroutine                                          Time (Seconds)
  Calculation of reciprocal space energy and derivatives          0.0368
  Calculation of real space energy and derivatives                0.2641
  Calculation of matrix inversion                                 0.0001
  Global summation overhead                                       0.0002

  Job Finished at 12:02.26  4th February   2020