  Job Started  at 13:26.45 21st February   2020

  Number of CPUs =     1

  Total number of configurations input =      1

*  Input for Configuration =   1                                               *

  Formula = O9Sr3Ti3

  Number of irreducible atoms/shells =      15

  Total number atoms/shells =      15

  Dimensionality = 3               :  Bulk

  Cartesian lattice vectors (Angstroms) :

        4.000000    0.000000    0.000000
        0.000000    6.000000    0.000000
        0.000000    0.000000   12.000000

  Cell parameters (Angstroms/Degrees):

  a =       4.0000    alpha =  90.0000
  b =       6.0000    beta  =  90.0000
  c =      12.0000    gamma =  90.0000

  Initial cell volume =         288.000000 Angs**3

  Temperature of configuration =  0.000     K

  Pressure of configuration =         0.000 GPa

  Fractional coordinates of asymmetric unit :

   No.  Atomic       x           y          z         Charge      Occupancy
        Label      (Frac)      (Frac)     (Frac)        (e)         (Frac)
      1 O     c    0.000000    0.333330    0.000000    -2.00000    1.000000
      2 O     c    0.000000 *  0.666670 *  0.166670 *  -2.00000    1.000000
      3 O     c    0.500000 *  0.666670 *  0.333330 *  -2.00000    1.000000
      4 O     c    0.000000 *  0.666670 *  0.666670 *  -2.00000    1.000000
      5 O     c    0.000000 *  0.333330 *  0.166670 *  -2.00000    1.000000
      6 O     c    0.000000 *  0.666670 *  0.833330 *  -2.00000    1.000000
      7 O     c    0.500000 *  0.666670 *  0.666670 *  -2.00000    1.000000
      8 O     c    0.000000 *  0.333330 *  0.500000 *  -2.00000    1.000000
      9 O     c    0.000000 *  0.000000 *  0.500000 *  -2.00000    1.000000
     10 Sr    c    0.750000 *  0.500000 *  0.250000 *   2.00000    1.000000
     11 Sr    c    0.750000 *  0.500000 *  0.916670 *   2.00000    1.000000
     12 Sr    c    0.750000 *  0.833330 *  0.750000 *   2.00000    1.000000
     13 Ti    c    0.750000 *  0.833330 *  0.083330 *   4.00000    1.000000
     14 Ti    c    0.250000 *  0.500000 *  0.916670 *   4.00000    1.000000
     15 Ti    c    0.250000 *  0.166670 *  0.250000 *   4.00000    1.000000

*  General input information                                                   *

  Species output for all configurations :

  Species    Type    Atomic    Atomic    Charge       Radii (Angs)     Library
                     Number     Mass       (e)     Cova   Ionic  VDW   Symbol
    O        Core        8      16.00  -2.000000   0.730  0.000  1.360
    Sr       Core       38      87.62   2.000000   1.120  0.000  1.670
    Ti       Core       22      47.88   4.000000   1.470  0.000  2.190

  Lattice summation method               =    Ewald          (3-D)
                                         =    Parry          (2-D)
                                         =    Saunders et al (1-D)
  Accuracy factor for lattice sums       =   12.000

  Time limit = Infinity

  Maximum range for interatomic potentials =    100000.000000 Angstroms

  General interatomic potentials :

Atom  Types   Potential      Parameter       Value         Units   Cutoffs(Ang)
  1     2                                                            Min /  Max
O    c Sr   c Buckingham    Buckingham A     1952.3900    eV        0.000 10.000
                            Buckingham rho  0.33685000    Ang
                            Buckingham C     19.220000    eV*Ang^6
O    c Ti   c Buckingham    Buckingham A     4590.7279    eV        0.000 10.000
                            Buckingham rho  0.26100000    Ang
                            Buckingham C     0.0000000    eV*Ang^6
O    c O    c Buckingham    Buckingham A     1388.7700    eV        0.000 10.000
                            Buckingham rho  0.36262000    Ang
                            Buckingham C     175.00000    eV*Ang^6
 Calling ------OPTIONS------

*  Output for configuration   1                                                *

  Components of energy :

  Interatomic potentials     =         128.82078291 eV
  Monopole - monopole (real) =         -97.95825989 eV
  Monopole - monopole (recip)=        -103.78411368 eV
  Monopole - monopole (total)=        -201.74237357 eV
  Total lattice energy       =         -72.92159066 eV
  Total lattice energy       =           -7035.8188 kJ/(mole unit cells)

  Number of variables =       48

  Maximum number of calculations  =          1000
  Maximum Hessian update interval =            10
  Maximum step size               =   1.000000000
  Maximum parameter tolerance     =   0.000010000
  Maximum function  tolerance     =   0.000010000
  Maximum gradient  tolerance     =   0.001000000
  Maximum gradient  component     =   0.010000000

  Cell parameters to be optimised using strains

  Conjugate gradient optimiser to be used

  Lower half triangular hessian to be used

  Minimiser to switch to BFGS with exact hessian
  When gradient norm is less than     0.500000

  Start of bulk optimisation :

 Perform trimming
 ALPHA BEFORE:    1.0000000000000000
 XC BEFORE:    0.0000000000000000
  ** Opt : line minimisation
left   ...       0.00000000     -72.92159066
centre ...       0.25000000    -157.00816721
right  ...       0.50000000    -213.33434108

left   ...       0.00000000     -72.92159066
centre ...       0.25000000    -157.00816721
right  ...       0.50000000    -213.33434108
new    ...       0.88225285    -278.39027088

__s__    ...       0.38225285

[...]

 ALPHA AFTER:    2.1481527699105571
 XC AFTER:    1.0325399430221689E-002
 SANITY CHECK:    2.1481527699105571
 DIRECTION dim            1  value    4.8066411173594550E-003
 DIRECTION dim            2  value    2.6245860025078185E-002
 DIRECTION dim            3  value   -6.4186160447533530E-002
 DIRECTION dim            4  value   -5.3413381539174033E-003
 DIRECTION dim            5  value    9.0405344542321374E-003
 DIRECTION dim            6  value   -4.0724502500466914E-002
 DIRECTION dim            7  value    5.2027735099270120E-003
 DIRECTION dim            8  value   -7.4528272222324707E-003
 DIRECTION dim            9  value    1.6940207656340148E-002
 DIRECTION dim           10  value    5.6113520230007359E-003
 DIRECTION dim           11  value   -2.5258711591040584E-002
 DIRECTION dim           12  value   -2.2188994668591221E-002
 DIRECTION dim           13  value    1.0754892876455540E-002
 DIRECTION dim           14  value   -1.4996423770671915E-003
 DIRECTION dim           15  value    9.6191466640706810E-002
 DIRECTION dim           16  value   -5.2027735099270120E-003
 DIRECTION dim           17  value   -7.4751860686051632E-003
 DIRECTION dim           18  value    3.0956818837733727E-002
 DIRECTION dim           19  value    1.5010574757235909E-004
 DIRECTION dim           20  value    6.3410263317355787E-003
 DIRECTION dim           21  value   -2.7244552128989723E-002
 DIRECTION dim           22  value    1.4116122670236242E-004
 DIRECTION dim           23  value   -6.5975969307285297E-003
 DIRECTION dim           24  value   -2.5117454109588350E-002
 DIRECTION dim           25  value   -4.6836172807590195E-003
 DIRECTION dim           26  value   -2.8738286759152662E-003
 DIRECTION dim           27  value    6.9286573385622496E-002
 DIRECTION dim           28  value   -9.7487511577923798E-003
 DIRECTION dim           29  value   -5.0986418706693779E-003
 DIRECTION dim           30  value   -3.8445204609625673E-002
 DIRECTION dim           31  value   -4.7695641759509582E-003
 DIRECTION dim           32  value    2.2673333931312142E-002
 DIRECTION dim           33  value   -5.2772610715707151E-002
 DIRECTION dim           34  value    2.4254590827257646E-003
 DIRECTION dim           35  value   -2.6998145196442739E-004
 DIRECTION dim           36  value    3.6539644041657250E-002
 DIRECTION dim           37  value   -2.8208456363180258E-003
 DIRECTION dim           38  value   -5.9138191348975175E-003
 DIRECTION dim           39  value   -7.3859263984909954E-002
 DIRECTION dim           40  value   -2.0891041068107933E-003
 DIRECTION dim           41  value    4.7160584370865288E-003
 DIRECTION dim           42  value    9.7619164421767629E-002
 DIRECTION dim           43  value    5.4775054702306231E-002
 DIRECTION dim           44  value    3.8419364077706700E-002
 DIRECTION dim           45  value   -2.9735972111385560E-002
 DIRECTION dim           46  value    8.6644232173381467E-003
 DIRECTION dim           47  value   -2.3135148509363635E-003
 DIRECTION dim           48  value   -1.9248965628742096E-003
 Perform trimming
 ALPHA BEFORE:    2.1481527699105571
 XC BEFORE:    1.0325399430221689E-002
  ** Opt : line minimisation
left   ...       0.00000000  -37162.90748606
centre ...       0.53703819    -160.26053866
right  ...      -0.53703819    -307.10421332

[...]

left   ...       0.00000000*****************
centre ...       0.00000051*****************
right  ...       0.00000103*****************
new    ...       0.00000048*****************

__s__    ...      -0.00000055

[...]

 ALPHA AFTER:    7.2978752756717810E-012
 XC AFTER:    1.6052218330365988E-002
 SANITY CHECK:    0.0000000000000000
 DIRECTION dim            1  value    124578.82023216288
 DIRECTION dim            2  value    3519.7670580977633
 DIRECTION dim            3  value    197895.12797278454
 DIRECTION dim            4  value    3.3198371511376425E-039
 DIRECTION dim            5  value    7.3499187832316440E-039
 DIRECTION dim            6  value    1.9758722220739056E-038
 DIRECTION dim            7  value   -3.1141194767805278E-040
 DIRECTION dim            8  value   -5.7597664011302724E-039
 DIRECTION dim            9  value   -1.4962284685216222E-038
 DIRECTION dim           10  value   -9.7058208329941357E-040
 DIRECTION dim           11  value   -1.1208483500652001E-038
 DIRECTION dim           12  value    2.0481473980800570E-038
 DIRECTION dim           13  value   -124578.82023216288
 DIRECTION dim           14  value   -3519.7670580977633
 DIRECTION dim           15  value   -197895.12797278454
 DIRECTION dim           16  value    1.5725964903487730E-039
 DIRECTION dim           17  value    1.5063082750651072E-039
 DIRECTION dim           18  value   -1.8877527728445155E-038
 DIRECTION dim           19  value    7.8429780225116210E-039
 DIRECTION dim           20  value   -5.1139786812892988E-039
 DIRECTION dim           21  value    3.0133075651260058E-038
 DIRECTION dim           22  value   -6.7597272028420822E-040
 DIRECTION dim           23  value   -3.0105645982140168E-039
 DIRECTION dim           24  value    1.2873453519930508E-038
 DIRECTION dim           25  value   -9.9880247911869398E-039
 DIRECTION dim           26  value    1.6724868478031874E-038
 DIRECTION dim           27  value   -3.3035306567899451E-038
 DIRECTION dim           28  value    4.3315542233562621E-039
 DIRECTION dim           29  value   -5.3885278510804010E-040
 DIRECTION dim           30  value    4.9738430713881145E-038
 DIRECTION dim           31  value   -1.4171500645531941E-041
 DIRECTION dim           32  value    2.4637139882827594E-039
 DIRECTION dim           33  value    2.0039159651090064E-039
 DIRECTION dim           34  value    5.5249725919904196E-039
 DIRECTION dim           35  value   -1.5056657430151892E-038
 DIRECTION dim           36  value   -4.6453263142463836E-038
 DIRECTION dim           37  value   -5.6742511677286598E-039
 DIRECTION dim           38  value    3.5317296682391811E-039
 DIRECTION dim           39  value    4.1770837690749691E-038
 DIRECTION dim           40  value    2.1067649210926759E-039
 DIRECTION dim           41  value   -7.7255222585727214E-039
 DIRECTION dim           42  value   -3.1412707079742203E-038
 DIRECTION dim           43  value   -2.8655083849752756E-002
 DIRECTION dim           44  value   -7.3133360937262269E-006
 DIRECTION dim           45  value   -1.1350702925009061E-002
 DIRECTION dim           46  value   -2.8811717302276967E-004
 DIRECTION dim           47  value   -1.8034836957116319E-002
 DIRECTION dim           48  value   -4.5778189019133150E-004
 Perform trimming
 ALPHA BEFORE:    2.9191501102687124E-011
 XC BEFORE:    1.6052218330365988E-002
  ** Opt : line minimisation
left   ...       0.00000000*****************
centre ...       0.00000000*****************
right  ...      -0.00000000*****************

 ALPHA AFTER:    7.2978752756717810E-012
 XC AFTER:    1.6052218330365988E-002
 SANITY CHECK:    0.0000000000000000
 DIRECTION dim            1  value    186868.23034824431
 DIRECTION dim            2  value    5279.6505871466443
 DIRECTION dim            3  value    296842.69195917679
 DIRECTION dim            4  value    4.9797557267064640E-039
 DIRECTION dim            5  value    1.1024878174847468E-038
 DIRECTION dim            6  value    2.9638083331108580E-038
 DIRECTION dim            7  value   -4.6711792151707921E-040
 DIRECTION dim            8  value   -8.6396496016954083E-039
 DIRECTION dim            9  value   -2.2443427027824336E-038
 DIRECTION dim           10  value   -1.4558731249491202E-039
 DIRECTION dim           11  value   -1.6812725250978002E-038
 DIRECTION dim           12  value    3.0722210971200856E-038
 DIRECTION dim           13  value   -186868.23034824431
 DIRECTION dim           14  value   -5279.6505871466443
 DIRECTION dim           15  value   -296842.69195917679
 DIRECTION dim           16  value    2.3588947355231591E-039
 DIRECTION dim           17  value    2.2594624125976606E-039
 DIRECTION dim           18  value   -2.8316291592667734E-038
 DIRECTION dim           19  value    1.1764467033767429E-038
 DIRECTION dim           20  value   -7.6709680219339472E-039
 DIRECTION dim           21  value    4.5199613476890086E-038
 DIRECTION dim           22  value   -1.0139590804263125E-039
 DIRECTION dim           23  value   -4.5158468973210248E-039
 DIRECTION dim           24  value    1.9310180279895761E-038
 DIRECTION dim           25  value   -1.4982037186780407E-038
 DIRECTION dim           26  value    2.5087302717047808E-038
 DIRECTION dim           27  value   -4.9552959851849166E-038
 DIRECTION dim           28  value    6.4973313350343918E-039
 DIRECTION dim           29  value   -8.0827917766206016E-040
 DIRECTION dim           30  value    7.4607646070821728E-038
 DIRECTION dim           31  value   -2.1257250968297910E-041
 DIRECTION dim           32  value    3.6955709824241389E-039
 DIRECTION dim           33  value    3.0058739476635092E-039
 DIRECTION dim           34  value    8.2874588879856288E-039
 DIRECTION dim           35  value   -2.2584986145227839E-038
 DIRECTION dim           36  value   -6.9679894713695751E-038
 DIRECTION dim           37  value   -8.5113767515929891E-039
 DIRECTION dim           38  value    5.2975945023587709E-039
 DIRECTION dim           39  value    6.2656256536124532E-038
 DIRECTION dim           40  value    3.1601473816390138E-039
 DIRECTION dim           41  value   -1.1588283387859081E-038
 DIRECTION dim           42  value   -4.7119060619613305E-038
 DIRECTION dim           43  value   -4.2982625774629128E-002
 DIRECTION dim           44  value   -1.0970004140589340E-005
 DIRECTION dim           45  value   -1.7026054387513589E-002
 DIRECTION dim           46  value   -4.3217575953415451E-004
 DIRECTION dim           47  value   -2.7052255435674473E-002
 DIRECTION dim           48  value   -6.8667283528699727E-004

  **** Too many failed attempts to optimise ****

  Final energy = **************** eV
  Final Gnorm  = ****************

  Components of energy :

  Interatomic potentials     = ******************** eV
  Monopole - monopole (real) =    47666629.57073073 eV
  Monopole - monopole (recip)=        -210.30941488 eV
  Monopole - monopole (total)=    47666419.26131585 eV
  Total lattice energy       = ******************** eV
  Total lattice energy       = ******************** kJ/(mole unit cells)

  Final fractional coordinates of atoms :

   No.  Atomic        x           y          z          Radius
        Label       (Frac)      (Frac)     (Frac)       (Angs)
     1  O     c     0.000000    0.333330    0.000000    0.000000
     2  O     c     0.016052    0.692197    0.033015    0.000000
     3  O     c     0.488980    0.685322    0.249312    0.000000
     4  O     c     0.010734    0.651294    0.701619    0.000000
     5  O     c     0.011577    0.281218    0.120893    0.000000
     6  O     c     0.016052    0.692197    0.033015    0.000000
     7  O     c     0.489266    0.651248    0.730536    0.000000
     8  O     c     0.000310    0.346412    0.443793    0.000000
     9  O     c     0.000291    0.986388    0.448181    0.000000
    10  Sr    c     0.740337    0.494072    0.392943    0.000000
    11  Sr    c     0.729888    0.489481    0.837356    0.000000
    12  Sr    c     0.740160    0.880107    0.641125    0.000000
    13  Ti    c     0.755004    0.832772    0.158713    0.000000
    14  Ti    c     0.244180    0.487799    0.764293    0.000000
    15  Ti    c     0.245690    0.176399    0.451396    0.000000

  Final Cartesian lattice vectors (Angstroms) :

        4.451821   -0.007451   -0.009520
       -0.011177    6.465631    0.053212
       -0.028561    0.106424   11.263417

  Final cell parameters and derivatives :

       a            4.451837 Angstrom     dE/de1(xx) ************ eV/strain
       b            6.465860 Angstrom     dE/de2(yy) ************ eV/strain
       c           11.263956 Angstrom     dE/de3(zz) ************ eV/strain
       alpha       88.986867 Degrees      dE/de4(yz) ************ eV/strain
       beta        90.268707 Degrees      dE/de5(xz) ************ eV/strain
       gamma       90.195941 Degrees      dE/de6(xy) ************ eV/strain

  Primitive cell volume =           324.176398 Angs**3

  Density of cell =      2.819888 g/cm**3

  Non-primitive cell volume =           324.176398 Angs**3

  Final internal derivatives :

   No.  Atomic          a             b             c           Radius
        Label          (eV)          (eV)          (eV)        (eV/Angs)
      1 O     c       0.000000      0.000000      0.000000      0.000000
      2 O     c ******************************************      0.000000
      3 O     c     -27.984069    -61.955036   -166.553181      0.000000
      4 O     c       2.625000     48.551086    126.122331      0.000000
      5 O     c       8.181376     94.480228   -172.645508      0.000000
      6 O     c ******************************************      0.000000
      7 O     c     -13.255966    -12.697199    159.125284      0.000000
      8 O     c     -66.111205     43.107515   -254.002235      0.000000
      9 O     c       5.698011     25.377102   -108.514843      0.000000
     10 Sr    c      84.192555   -140.979766    278.466154      0.000000
     11 Sr    c     -36.512186      4.542179   -419.262630      0.000000
     12 Sr    c       0.119457    -20.767507    -16.891709      0.000000
     13 Ti    c     -46.571927    126.917832    391.570804      0.000000
     14 Ti    c      47.830248    -29.770185   -352.101002      0.000000
     15 Ti    c     -17.758658     65.121129    264.788696      0.000000
  Maximum abs   ******************************************      0.000000

  Time to end of optimisation =       0.1547 seconds

 Exiting ------OPTIONS------

  Timing analysis for GULP :

  Task / Subroutine                                          Time (Seconds)
  Calculation of reciprocal space energy and derivatives          0.0209
  Calculation of real space energy and derivatives                0.1230
  Global summation overhead                                       0.0001

  Job Finished at 13:26.45 21st February   2020