  Job Started  at 13:26.44 21st February   2020

  Number of CPUs =     1

  Total number of configurations input =      1

*  Input for Configuration =   1                                               *

  Formula = O9Sr3Ti3

  Number of irreducible atoms/shells =      15

  Total number atoms/shells =      15

  Dimensionality = 3               :  Bulk

  Cartesian lattice vectors (Angstroms) :

        4.000000    0.000000    0.000000
        0.000000    4.000000    0.000000
        0.000000    0.000000    8.000000

  Cell parameters (Angstroms/Degrees):

  a =       4.0000    alpha =  90.0000
  b =       4.0000    beta  =  90.0000
  c =       8.0000    gamma =  90.0000

  Initial cell volume =         128.000000 Angs**3

  Temperature of configuration =  0.000     K

  Pressure of configuration =         0.000 GPa

  Fractional coordinates of asymmetric unit :

   No.  Atomic       x           y          z         Charge      Occupancy
        Label      (Frac)      (Frac)     (Frac)        (e)         (Frac)
      1 O     c    0.000000    0.500000    0.250000    -2.00000    1.000000
      2 O     c    0.500000 *  0.500000 *  0.250000 *  -2.00000    1.000000
      3 O     c    0.000000 *  0.500000 *  0.500000 *  -2.00000    1.000000
      4 O     c    0.500000 *  0.000000 *  0.500000 *  -2.00000    1.000000
      5 O     c    0.500000 *  0.500000 *  0.750000 *  -2.00000    1.000000
      6 O     c    0.000000 *  0.000000 *  0.000000 *  -2.00000    1.000000
      7 O     c    0.000000 *  0.000000 *  0.500000 *  -2.00000    1.000000
      8 O     c    0.500000 *  0.000000 *  0.000000 *  -2.00000    1.000000
      9 O     c    0.000000 *  0.500000 *  0.750000 *  -2.00000    1.000000
     10 Sr    c    0.750000 *  0.250000 *  0.375000 *   2.00000    1.000000
     11 Sr    c    0.750000 *  0.750000 *  0.875000 *   2.00000    1.000000
     12 Sr    c    0.750000 *  0.750000 *  0.125000 *   2.00000    1.000000
     13 Ti    c    0.750000 *  0.250000 *  0.875000 *   4.00000    1.000000
     14 Ti    c    0.250000 *  0.250000 *  0.125000 *   4.00000    1.000000
     15 Ti    c    0.250000 *  0.750000 *  0.125000 *   4.00000    1.000000

*  General input information                                                   *

  Species output for all configurations :

  Species    Type    Atomic    Atomic    Charge       Radii (Angs)     Library
                     Number     Mass       (e)     Cova   Ionic  VDW   Symbol
    O        Core        8      16.00  -2.000000   0.730  0.000  1.360
    Sr       Core       38      87.62   2.000000   1.120  0.000  1.670
    Ti       Core       22      47.88   4.000000   1.470  0.000  2.190

  Lattice summation method               =    Ewald          (3-D)
                                         =    Parry          (2-D)
                                         =    Saunders et al (1-D)
  Accuracy factor for lattice sums       =   12.000

  Time limit = Infinity

  Maximum range for interatomic potentials =    100000.000000 Angstroms

  General interatomic potentials :

Atom  Types   Potential      Parameter       Value         Units   Cutoffs(Ang)
  1     2                                                            Min /  Max
O    c Sr   c Buckingham    Buckingham A     1952.3900    eV        0.000 10.000
                            Buckingham rho  0.33685000    Ang
                            Buckingham C     19.220000    eV*Ang^6
O    c Ti   c Buckingham    Buckingham A     4590.7279    eV        0.000 10.000
                            Buckingham rho  0.26100000    Ang
                            Buckingham C     0.0000000    eV*Ang^6
O    c O    c Buckingham    Buckingham A     1388.7700    eV        0.000 10.000
                            Buckingham rho  0.36262000    Ang
                            Buckingham C     175.00000    eV*Ang^6
 Calling ------OPTIONS------

*  Output for configuration   1                                                *

  Components of energy :

  Interatomic potentials     =         252.05488473 eV
  Monopole - monopole (real) =        -121.78183040 eV
  Monopole - monopole (recip)=        -176.23510212 eV
  Monopole - monopole (total)=        -298.01693251 eV
  Total lattice energy       =         -45.96204778 eV
  Total lattice energy       =           -4434.6350 kJ/(mole unit cells)

  Number of variables =       48

  Maximum number of calculations  =          1000
  Maximum Hessian update interval =            10
  Maximum step size               =   1.000000000
  Maximum parameter tolerance     =   0.000010000
  Maximum function  tolerance     =   0.000010000
  Maximum gradient  tolerance     =   0.001000000
  Maximum gradient  component     =   0.010000000

  Cell parameters to be optimised using strains

  Conjugate gradient optimiser to be used

  Lower half triangular hessian to be used

  Minimiser to switch to BFGS with exact hessian
  When gradient norm is less than     0.500000

  Start of bulk optimisation :

 Perform trimming
 ALPHA BEFORE:    1.0000000000000000
 XC BEFORE:   0.50000000000000000
  ** Opt : line minimisation
left   ...       0.00000000     -45.96204778
centre ...       0.25000000    -151.94574012
right  ...       0.50000000    -221.62406934

left   ...       0.00000000     -45.96204778
centre ...       0.25000000    -151.94574012
right  ...       0.50000000    -221.62406934
new    ...       0.85480741    -287.03404440

__s__    ...       0.35480741

[...]

 ALPHA AFTER:    1.2682182118296077
 XC AFTER:   0.47906217823453129
 SANITY CHECK:    1.2682182118296050
 DIRECTION dim            1  value   -1.6509636567403174E-002
 DIRECTION dim            2  value   -3.3076942582235607E-004
 DIRECTION dim            3  value   -7.8869337607690201E-002
 DIRECTION dim            4  value    6.8184340503957283E-003
 DIRECTION dim            5  value    6.6227869714520753E-003
 DIRECTION dim            6  value   -9.6048413201128852E-003
 DIRECTION dim            7  value   -6.8184340503957283E-003
 DIRECTION dim            8  value   -6.6227869714520710E-003
 DIRECTION dim            9  value   -9.6048413201129269E-003
 DIRECTION dim           10  value   -5.4496109905292139E-003
 DIRECTION dim           11  value   -8.6531488829633182E-003
 DIRECTION dim           12  value    6.0901500990118825E-002
 DIRECTION dim           13  value    1.5140813507536668E-002
 DIRECTION dim           14  value    1.5606705280237741E-002
 DIRECTION dim           15  value    2.7572677937684236E-002
 DIRECTION dim           16  value    6.8184340503957309E-003
 DIRECTION dim           17  value   -6.6227869714520719E-003
 DIRECTION dim           18  value   -9.6048413201129095E-003
 DIRECTION dim           19  value   -1.5140813507536661E-002
 DIRECTION dim           20  value    1.5606705280237741E-002
 DIRECTION dim           21  value    2.7572677937684264E-002
 DIRECTION dim           22  value    5.4496109905292122E-003
 DIRECTION dim           23  value   -8.6531488829633182E-003
 DIRECTION dim           24  value    7.7507495455136979E-002
 DIRECTION dim           25  value   -6.7206105109238997E-003
 DIRECTION dim           26  value   -6.7206105109239031E-003
 DIRECTION dim           27  value    5.9846788820981593E-002
 DIRECTION dim           28  value    2.3294588635054428E-004
 DIRECTION dim           29  value   -2.3294588635053678E-004
 DIRECTION dim           30  value   -8.1269293832197553E-002
 DIRECTION dim           31  value    2.3294588635051515E-004
 DIRECTION dim           32  value   -2.3294588635053637E-004
 DIRECTION dim           33  value    4.4054150107526668E-002
 DIRECTION dim           34  value    5.6371531217289485E-004
 DIRECTION dim           35  value    5.6371531217289854E-004
 DIRECTION dim           36  value  -0.14630557863871513
 DIRECTION dim           37  value   -5.6371531217290006E-004
 DIRECTION dim           38  value    5.6371531217289887E-004
 DIRECTION dim           39  value    6.6639387431258731E-002
 DIRECTION dim           40  value   -5.6371531217288726E-004
 DIRECTION dim           41  value   -5.6371531217289919E-004
 DIRECTION dim           42  value    6.6639387431258745E-002
 DIRECTION dim           43  value   0.11535151153595628
 DIRECTION dim           44  value   0.11154815170797851
 DIRECTION dim           45  value   -2.9418437637588845E-002
 DIRECTION dim           46  value   -4.8481840069290695E-003
 DIRECTION dim           47  value    2.8064460769596021E-003
 DIRECTION dim           48  value    1.8328170557824020E-003
 Perform trimming
 ALPHA BEFORE:    1.2682182118296077
 XC BEFORE:   0.47906217823453129
  ** Opt : line minimisation
left   ...       0.00000000    -314.48515249
centre ...       0.31705455    -370.80072688
right  ...       0.63410911    -378.00898542

[...]

 ALPHA AFTER:   0.52212094790919983
 XC AFTER:   0.46511941474479107
 SANITY CHECK:   0.52212094790919972
 DIRECTION dim            1  value   -2.6704087521431830E-002
 DIRECTION dim            2  value   -3.2488305791041124E-002
 DIRECTION dim            3  value    6.2917832399771237E-002
 DIRECTION dim            4  value    2.8603688170360755E-002
 DIRECTION dim            5  value    1.1739451224732980E-002
 DIRECTION dim            6  value    5.7508345216513948E-002
 DIRECTION dim            7  value   -3.5113305657099095E-002
 DIRECTION dim            8  value   -3.7009924182167461E-002
 DIRECTION dim            9  value   -2.2584057074435990E-002
 DIRECTION dim           10  value   -5.4734525724169361E-003
 DIRECTION dim           11  value   -5.2827824018277077E-002
 DIRECTION dim           12  value   -5.1401375239115872E-002
 DIRECTION dim           13  value    1.2358154483399508E-002
 DIRECTION dim           14  value   -2.5666374587899636E-003
 DIRECTION dim           15  value   0.10035601993251544
 DIRECTION dim           16  value    2.9013818626501171E-002
 DIRECTION dim           17  value   -1.7023251921347429E-002
 DIRECTION dim           18  value   -1.7365911632977956E-002
 DIRECTION dim           19  value   -1.2702649755257790E-002
 DIRECTION dim           20  value   -5.8038733625580810E-003
 DIRECTION dim           21  value    9.4276717697227244E-002
 DIRECTION dim           22  value   -1.1692685335567581E-004
 DIRECTION dim           23  value   -4.4007556066960156E-002
 DIRECTION dim           24  value    2.3277161525131641E-003
 DIRECTION dim           25  value   -2.8584154455602275E-002
 DIRECTION dim           26  value    6.0196119948449520E-002
 DIRECTION dim           27  value  -0.11719087316772724
 DIRECTION dim           28  value    9.5922051841630003E-003
 DIRECTION dim           29  value    7.1046795800668805E-002
 DIRECTION dim           30  value   -1.2284143828804175E-002
 DIRECTION dim           31  value    5.9804192546281240E-003
 DIRECTION dim           32  value    6.5713266960116576E-002
 DIRECTION dim           33  value   -4.4057448066428299E-002
 DIRECTION dim           34  value    2.1142218201455988E-002
 DIRECTION dim           35  value    1.9969832983672157E-002
 DIRECTION dim           36  value   0.13820736438802078
 DIRECTION dim           37  value   -1.5136748842856738E-002
[...]
 DIRECTION dim           14  value   -1.4898002431247385E-004
 DIRECTION dim           15  value    1.1293211604605849E-003
 DIRECTION dim           16  value    2.9545292744261342E-003
 DIRECTION dim           17  value   -9.7456310313450334E-004
 DIRECTION dim           18  value   -3.3804402750636196E-003
 DIRECTION dim           19  value    1.0413944488406981E-003
 DIRECTION dim           20  value    3.3305486046158231E-003
 DIRECTION dim           21  value   -4.0414931612415099E-003
 DIRECTION dim           22  value    2.7371120086459840E-003
 DIRECTION dim           23  value   -1.3139511260101716E-002
 DIRECTION dim           24  value    1.8827484080069304E-003
 DIRECTION dim           25  value    1.0809535135051030E-003
 DIRECTION dim           26  value    1.5631352902137458E-003
 DIRECTION dim           27  value    6.1568584047533570E-003
 DIRECTION dim           28  value   -5.1963447097958994E-003
 DIRECTION dim           29  value    7.8140152344848674E-004
 DIRECTION dim           30  value    6.9378844576171821E-003
 DIRECTION dim           31  value    7.1469992369616459E-003
 DIRECTION dim           32  value   -1.2493723502655547E-002
 DIRECTION dim           33  value   -1.8011772105638367E-003
 DIRECTION dim           34  value   -7.1950201704706353E-004
 DIRECTION dim           35  value    2.9536486950897238E-003
 DIRECTION dim           36  value   -1.0474646595562988E-002
 DIRECTION dim           37  value    4.6003391895511414E-003
 DIRECTION dim           38  value   -1.0663562695394858E-002
 DIRECTION dim           39  value   -4.9678583641160866E-003
 DIRECTION dim           40  value   -9.0106922236933454E-004
 DIRECTION dim           41  value   -2.4904248021664858E-003
 DIRECTION dim           42  value   -6.4729710650090833E-003
 DIRECTION dim           43  value    6.7612882187035959E-003
 DIRECTION dim           44  value   -6.0792935040026915E-003
 DIRECTION dim           45  value   -1.6892853286131588E-003
 DIRECTION dim           46  value   -4.7084274005298951E-003
 DIRECTION dim           47  value   -4.0016270861133393E-003
 DIRECTION dim           48  value    2.6497856281157942E-003
  ** Hessian calculated **
 ALPHA BEFORE:    1.0000000000000000
 XC BEFORE:   0.35793549884162218
  ** Opt : line minimisation
left   ...       0.00000000    -465.83807285
centre ...       0.25000000    -465.93102446
right  ...       0.50000000    -465.98192330

[...]

 ALPHA AFTER:   0.54373907229351681
 XC AFTER:   0.40860724822441002
 SANITY CHECK:   0.54373907229351515
 DIRECTION dim            1  value   -4.9912835299439160E-003
 DIRECTION dim            2  value   -4.8697988615199203E-003
 DIRECTION dim            3  value   -1.2174780093902882E-003
 DIRECTION dim            4  value    1.1074957659960877E-003
 DIRECTION dim            5  value   -2.9438201457039794E-004
 DIRECTION dim            6  value    4.0017029279263124E-003
 DIRECTION dim            7  value    5.1746857817799689E-003
 DIRECTION dim            8  value   -1.1534816249771703E-002
 DIRECTION dim            9  value   -7.8841039305795023E-003
 DIRECTION dim           10  value   -2.9039637720418886E-003
 DIRECTION dim           11  value    1.4281608972838296E-003
 DIRECTION dim           12  value   -3.3084033238953278E-003
 DIRECTION dim           13  value   -9.3133053960647340E-003
 DIRECTION dim           14  value    4.8030867527658148E-003
 DIRECTION dim           15  value    4.3387295296341546E-003
 DIRECTION dim           16  value   -1.0138283515980205E-003
 DIRECTION dim           17  value   -4.9805155811127270E-003
 DIRECTION dim           18  value    2.6361420999723071E-003
 DIRECTION dim           19  value   -9.7717809607917854E-003
 DIRECTION dim           20  value   -4.4928955708378009E-003
 DIRECTION dim           21  value   -6.8711944691320793E-003
 DIRECTION dim           22  value   -7.3659841510407154E-003
 DIRECTION dim           23  value    1.3082114650419543E-003
 DIRECTION dim           24  value    5.0942732008435671E-004
 DIRECTION dim           25  value   -8.3370088432361301E-003
 DIRECTION dim           26  value    1.3105929592404808E-002
 DIRECTION dim           27  value    4.8496387926615361E-003
 DIRECTION dim           28  value   -6.6666080773854558E-003
 DIRECTION dim           29  value   -4.6722127341702812E-003
 DIRECTION dim           30  value   -4.1157336608710123E-003
 DIRECTION dim           31  value   -1.2309140852724512E-002
 DIRECTION dim           32  value   -7.8156248600631134E-004
 DIRECTION dim           33  value   -1.5709579540851993E-003
 DIRECTION dim           34  value   -5.8621626116078717E-003
 DIRECTION dim           35  value    1.4762516459826619E-003
 DIRECTION dim           36  value    2.2121713990030344E-003
 DIRECTION dim           37  value   -8.0775121078183049E-003
 DIRECTION dim           38  value   -1.7037252526014950E-003
 DIRECTION dim           39  value   -1.1420241259701978E-003
 DIRECTION dim           40  value   -5.7670720352353275E-003
 DIRECTION dim           41  value   -3.7020767022178588E-003
 DIRECTION dim           42  value   -2.0249977287586218E-003
 DIRECTION dim           43  value    1.4663384729016057E-003
 DIRECTION dim           44  value    2.3610944171319668E-003
 DIRECTION dim           45  value   -1.8754552405552622E-003
 DIRECTION dim           46  value   -1.7943554808488823E-003
 DIRECTION dim           47  value   -6.1620095220320196E-003
 DIRECTION dim           48  value   -6.5554487817543871E-003
  ** Hessian calculated **
 ALPHA BEFORE:    1.0000000000000000
 XC BEFORE:   0.40860724822441002
  ** Opt : line minimisation
left   ...       0.00000000    -472.39624988
centre ...       0.25000000    -472.43348623
right  ...       0.50000000    -472.46499942

[...]

 ALPHA AFTER:    1.0592338473400058
 XC AFTER:   0.40112521152182162
 SANITY CHECK:    1.0592338473398191
 DIRECTION dim            1  value    8.3572944317828393E-005
 DIRECTION dim            2  value   -3.5721968055847620E-005
 DIRECTION dim            3  value   -6.3355224629359444E-005
 DIRECTION dim            4  value    7.0376753443188826E-005
 DIRECTION dim            5  value   -7.8379849568837917E-005
 DIRECTION dim            6  value   -6.3290988283054187E-005
 DIRECTION dim            7  value    1.0339053683774883E-004
 DIRECTION dim            8  value   -6.8810946403406585E-005
 DIRECTION dim            9  value   -5.4272226158522355E-005
 DIRECTION dim           10  value   -1.6498068756183090E-006
 DIRECTION dim           11  value   -1.1489568776218868E-004
 DIRECTION dim           12  value   -1.7945399242181441E-005
 DIRECTION dim           13  value    1.2550854748242531E-004
 DIRECTION dim           14  value   -2.5616475897340287E-005
 DIRECTION dim           15  value   -4.1249655303298771E-005
 DIRECTION dim           16  value    5.3750423653866686E-005
 DIRECTION dim           17  value   -5.2892692232993306E-005
 DIRECTION dim           18  value   -4.8074879019084383E-005
 DIRECTION dim           19  value    1.3095654228773468E-004
 DIRECTION dim           20  value    2.2290766003906604E-005
 DIRECTION dim           21  value   -4.9994757027102852E-005
 DIRECTION dim           22  value    8.6933587429971327E-005
 DIRECTION dim           23  value   -4.2258598501528571E-005
 DIRECTION dim           24  value   -3.6646759820663474E-005
 DIRECTION dim           25  value    3.6858791407866655E-005
 DIRECTION dim           26  value    7.6418942289105548E-006
 DIRECTION dim           27  value    1.5534551512880941E-005
 DIRECTION dim           28  value   -1.6956947734850334E-005
 DIRECTION dim           29  value   -1.4178366962800998E-004
 DIRECTION dim           30  value   -3.9681247835983820E-005
 DIRECTION dim           31  value    1.4571529039391441E-004
 DIRECTION dim           32  value    1.2896212027385212E-005
 DIRECTION dim           33  value   -3.3771307311986350E-005
 DIRECTION dim           34  value    1.8285131011172985E-005
 DIRECTION dim           35  value   -1.0338171584095901E-004
 DIRECTION dim           36  value   -3.9789478518649985E-005
 DIRECTION dim           37  value    1.5337787774963484E-004
 DIRECTION dim           38  value   -1.7176381888230389E-005
 DIRECTION dim           39  value   -5.1886960086160236E-005
 DIRECTION dim           40  value    6.4081575549318367E-005
 DIRECTION dim           41  value   -4.9468442494531435E-005
 DIRECTION dim           42  value   -4.6934606494854618E-005
 DIRECTION dim           43  value   -5.2526224671308696E-005
 DIRECTION dim           44  value    9.2947782490464340E-006
 DIRECTION dim           45  value   -3.0155307807528552E-005
 DIRECTION dim           46  value    4.0057481925227101E-005
 DIRECTION dim           47  value    3.1814181143567947E-004
 DIRECTION dim           48  value   -3.0380093615762100E-004
 ALPHA BEFORE:    2.9553393958468868
 XC BEFORE:   0.40112521152182162
  ** Opt : line minimisation
left   ...       0.00000000    -472.53016923
centre ...       0.73883485    -472.53017068
right  ...       1.47766970    -472.53016955

left   ...       0.00000000    -472.53016923
centre ...       0.73883485    -472.53017068
right  ...       1.47766970    -472.53016955
new    ...       0.78500649    -472.53017069

__s__    ...      -0.69266321

 ALPHA AFTER:   0.78500649234661801
 XC AFTER:   0.40111091539247917
 SANITY CHECK:   0.78500649234612951
 DIRECTION dim            1  value   -1.8211479117483350E-005
 DIRECTION dim            2  value    1.0952106006092575E-005
 DIRECTION dim            3  value    4.5140024412026347E-005
 DIRECTION dim            4  value   -4.2889069557048817E-005
 DIRECTION dim            5  value    3.5078269869524831E-005
 DIRECTION dim            6  value    3.0642620951438518E-005
 DIRECTION dim            7  value    1.7305898863627157E-005
 DIRECTION dim            8  value    1.8533017794329412E-005
 DIRECTION dim            9  value    1.6504636784469091E-005
 DIRECTION dim           10  value   -1.6862827812569028E-005
 DIRECTION dim           11  value    2.1501862744926914E-005
 DIRECTION dim           12  value    2.8887400086561797E-005
 DIRECTION dim           13  value   -1.0473076276138889E-005
 DIRECTION dim           14  value    1.1454090932212836E-005
 DIRECTION dim           15  value    2.7907951098550065E-005
 DIRECTION dim           16  value    5.2988373698024539E-006
 DIRECTION dim           17  value    3.1013418042184863E-005
 DIRECTION dim           18  value    1.9819117339895763E-005
 DIRECTION dim           19  value   -3.1765361283353892E-005
 DIRECTION dim           20  value    2.9179185807544182E-005
 DIRECTION dim           21  value    2.9805971894967741E-005
 DIRECTION dim           22  value   -1.0407563862865625E-005
 DIRECTION dim           23  value    2.2031290591463666E-005
 DIRECTION dim           24  value    2.3449986633213695E-005
 DIRECTION dim           25  value   -7.7626571204369992E-006
 DIRECTION dim           26  value    1.8399940211287560E-005
 DIRECTION dim           27  value    2.2505714838160354E-005
 DIRECTION dim           28  value    1.1412995491997461E-005
 DIRECTION dim           29  value    7.6910691331058474E-005
 DIRECTION dim           30  value    3.3048081053399479E-005
 DIRECTION dim           31  value   -5.8747873577730612E-005
 DIRECTION dim           32  value   -2.0035688492375288E-005
 DIRECTION dim           33  value    2.4910585730358750E-005
 DIRECTION dim           34  value   -1.9026026063906273E-005
 DIRECTION dim           35  value    4.2501010203392932E-005
 DIRECTION dim           36  value    3.0316450072353192E-005
 DIRECTION dim           37  value   -3.0565266513346971E-005
 DIRECTION dim           38  value    1.8956029643758781E-005
 DIRECTION dim           39  value    3.3119485929975700E-005
 DIRECTION dim           40  value   -5.2585630258417940E-006
 DIRECTION dim           41  value    2.4086636828897998E-005
 DIRECTION dim           42  value    2.4593650188548360E-005
 DIRECTION dim           43  value    3.1339706327900193E-007
 DIRECTION dim           44  value   -2.3721057708458030E-005
 DIRECTION dim           45  value    2.3458507255569110E-005
 DIRECTION dim           46  value   -2.6245050449387008E-005
 DIRECTION dim           47  value   -1.8096847915753911E-005
 DIRECTION dim           48  value   -1.2621239997806386E-004

  **** Optimisation achieved ****

  Final energy =    -472.53017069 eV
  Final Gnorm  =       0.00033570

  Components of energy :

  Interatomic potentials     =          69.66116761 eV
  Monopole - monopole (real) =        -259.20315868 eV
  Monopole - monopole (recip)=        -282.98817962 eV
  Monopole - monopole (total)=        -542.19133830 eV
  Total lattice energy       =        -472.53017069 eV
  Total lattice energy       =          -45591.9382 kJ/(mole unit cells)

  Final fractional coordinates of atoms :

   No.  Atomic        x           y          z          Radius
        Label       (Frac)      (Frac)     (Frac)       (Angs)
     1  O     c     0.000000    0.500000    0.250000    0.000000
     2  O     c     0.401111    0.555801    0.229270    0.000000
     3  O     c     0.220951    0.593009    0.566937    0.000000
     4  O     c     0.339954    0.079421    0.509580    0.000000
     5  O     c     0.816651    0.498815    0.722366    0.000000
     6  O     c     0.118992    0.986418    0.192645    0.000000
     7  O     c     0.938840    0.023637    0.530314    0.000000
     8  O     c     0.523285    0.080621    0.037220    0.000000
     9  O     c     0.169968    0.289716    0.879793    0.000000
    10  Sr    c     0.669970    0.289721    0.379795    0.000000
    11  Sr    c     0.595416    0.909989    0.710499    0.000000
    12  Sr    c     0.744528    0.669451    0.049090    0.000000
    13  Ti    c     0.096572    0.324868    0.655350    0.000000
    14  Ti    c     0.243366    0.254567    0.104237    0.000000
    15  Ti    c     0.169975    0.789716    0.379792    0.000000

  Final Cartesian lattice vectors (Angstroms) :

        5.911678    0.063485    0.166035
        0.063485    5.207144   -0.518065
        0.332069   -1.036131    7.549449

  Final cell parameters and derivatives :

       a            5.914349 Angstrom     dE/de1(xx)     0.003636 eV/strain
       b            5.233237 Angstrom     dE/de2(yy)     0.004366 eV/strain
       c            7.627451 Angstrom     dE/de3(zz)     0.000603 eV/strain
       alpha      103.451356 Degrees      dE/de4(yz)    -0.001765 eV/strain
       beta        85.994956 Degrees      dE/de5(xz)    -0.000183 eV/strain
       gamma       88.852450 Degrees      dE/de6(xy)     0.001526 eV/strain

  Primitive cell volume =           228.881695 Angs**3

  Density of cell =      3.993947 g/cm**3

  Non-primitive cell volume =           228.881695 Angs**3

  Final internal derivatives :

   No.  Atomic          a             b             c           Radius
        Label          (eV)          (eV)          (eV)        (eV/Angs)
      1 O     c       0.000000      0.000000      0.000000      0.000000
      2 O     c       0.004163      0.000967      0.001415      0.000000
      3 O     c       0.003204      0.002795     -0.003266      0.000000
      4 O     c       0.006744     -0.001794     -0.002963      0.000000
      5 O     c      -0.003960     -0.000207      0.000782      0.000000
      6 O     c      -0.001036     -0.001571      0.001161      0.000000
      7 O     c      -0.002224      0.000594     -0.003394      0.000000
      8 O     c       0.000156      0.001031      0.000641      0.000000
      9 O     c       0.000043     -0.000316      0.002582      0.000000
     10 Sr    c       0.000007      0.000184      0.000866      0.000000
     11 Sr    c      -0.000420     -0.000558      0.001452      0.000000
     12 Sr    c       0.000701      0.000373     -0.001579      0.000000
     13 Ti    c      -0.004450     -0.000967      0.004971      0.000000
     14 Ti    c       0.000168      0.002325     -0.002771      0.000000
     15 Ti    c      -0.000427     -0.000135      0.001859      0.000000
  Maximum abs         0.006744      0.002795      0.004971      0.000000

  Time to end of optimisation =       0.3372 seconds

 Exiting ------OPTIONS------

  Timing analysis for GULP :

  Task / Subroutine                                          Time (Seconds)
  Calculation of reciprocal space energy and derivatives          0.0372
  Calculation of real space energy and derivatives                0.2872
  Calculation of matrix inversion                                 0.0002
  Global summation overhead                                       0.0002

  Job Finished at 13:26.45 21st February   2020