  Job Started  at 13:26.17 21st February   2020

  Number of CPUs =     1

  Total number of configurations input =      1

*  Input for Configuration =   1                                               *

  Formula = Sr3Ti3O9

  Number of irreducible atoms/shells =      15

  Total number atoms/shells =      15

  Dimensionality = 3               :  Bulk

  Cartesian lattice vectors (Angstroms) :

       12.000000    0.000000    0.000000
        0.000000    4.000000    0.000000
        0.000000    0.000000    4.000000

  Cell parameters (Angstroms/Degrees):

  a =      12.0000    alpha =  90.0000
  b =       4.0000    beta  =  90.0000
  c =       4.0000    gamma =  90.0000

  Initial cell volume =         192.000000 Angs**3

  Temperature of configuration =  0.000     K

  Pressure of configuration =         0.000 GPa

  Fractional coordinates of asymmetric unit :

   No.  Atomic       x           y          z         Charge      Occupancy
        Label      (Frac)      (Frac)     (Frac)        (e)         (Frac)
      1 Sr    c    0.999960    0.999870    0.000550     2.00000    1.000000
      2 Ti    c    0.166670 *  0.500120 *  0.500000 *   4.00000    1.000000
      3 O     c    0.999860 *  0.499900 *  0.500580 *  -2.00000    1.000000
      4 O     c    0.166680 *  0.000170 *  0.499980 *  -2.00000    1.000000
      5 O     c    0.166710 *  0.500200 *  0.999660 *  -2.00000    1.000000
      6 Sr    c    0.333470 *  0.000350 *  0.000010 *   2.00000    1.000000
      7 Ti    c    0.500270 *  0.499340 *  0.499380 *   4.00000    1.000000
      8 O     c    0.333310 *  0.499790 *  0.499620 *  -2.00000    1.000000
      9 O     c    0.499980 *  0.999440 *  0.500200 *  -2.00000    1.000000
     10 O     c    0.500030 *  0.500400 *  0.000150 *  -2.00000    1.000000
     11 Sr    c    0.666540 *  0.999940 *  0.999970 *   2.00000    1.000000
     12 Ti    c    0.833350 *  0.499710 *  0.499670 *   4.00000    1.000000
     13 O     c    0.666530 *  0.499700 *  0.500090 *  -2.00000    1.000000
     14 O     c    0.833150 *  0.000100 *  0.500050 *  -2.00000    1.000000
     15 O     c    0.833380 *  0.500160 *  0.000120 *  -2.00000    1.000000

*  General input information                                                   *

  Species output for all configurations :

  Species    Type    Atomic    Atomic    Charge       Radii (Angs)     Library
                     Number     Mass       (e)     Cova   Ionic  VDW   Symbol
    Sr       Core       38      87.62   2.000000   1.120  0.000  1.670
    Ti       Core       22      47.88   4.000000   1.470  0.000  2.190
    O        Core        8      16.00  -2.000000   0.730  0.000  1.360

  Lattice summation method               =    Ewald          (3-D)
                                         =    Parry          (2-D)
                                         =    Saunders et al (1-D)
  Accuracy factor for lattice sums       =   12.000

  Time limit =      15.00 seconds

  Maximum range for interatomic potentials =    100000.000000 Angstroms

  General interatomic potentials :

Atom  Types   Potential      Parameter       Value         Units   Cutoffs(Ang)
  1     2                                                            Min /  Max
O    c Sr   c Buckingham    Buckingham A     1952.3900    eV        0.000 10.000
                            Buckingham rho  0.33685000    Ang
                            Buckingham C     19.220000    eV*Ang^6
O    c Ti   c Buckingham    Buckingham A     4590.7279    eV        0.000 10.000
                            Buckingham rho  0.26100000    Ang
                            Buckingham C     0.0000000    eV*Ang^6
O    c O    c Buckingham    Buckingham A     1388.7700    eV        0.000 10.000
                            Buckingham rho  0.36262000    Ang
                            Buckingham C     175.00000    eV*Ang^6
 Calling ------OPTIONS------

*  Output for configuration   1                                                *

  Components of energy :

  Interatomic potentials     =          59.32156790 eV
  Monopole - monopole (real) =        -234.57439053 eV
  Monopole - monopole (recip)=        -300.12335562 eV
  Monopole - monopole (total)=        -534.69774615 eV
  Total lattice energy       =        -475.37617825 eV
  Total lattice energy       =          -45866.5344 kJ/(mole unit cells)

  Number of variables =       48

  Maximum number of calculations  =          1000
  Maximum Hessian update interval =            10
  Maximum step size               =   1.000000000
  Maximum parameter tolerance     =   0.000010000
  Maximum function  tolerance     =   0.000010000
  Maximum gradient  tolerance     =   0.001000000
  Maximum gradient  component     =   0.010000000

  Cell parameters to be optimised using strains

  Newton-Raphson optimiser to be used

  BFGS hessian update to be used

  Lower half triangular hessian to be used

  Start of bulk optimisation :

  ** Hessian calculated **
 ALPHA BEFORE:    1.0000000000000000
 XC BEFORE:   0.16666999999995369
  ** Opt : line minimisation
left   ...       0.00000000    -475.37617825
centre ...       0.25000000    -475.46192301
right  ...       0.50000000    -475.52276742

left   ...       0.00000000    -475.37617825
centre ...       0.25000000    -475.46192301
right  ...       0.50000000    -475.52276742
new    ...       0.98587946    -475.56714681

__s__    ...       0.48587946

[...]

 ALPHA AFTER:   0.96398095671933726
 XC AFTER:   0.16662368771395261
 SANITY CHECK:   0.96398095671925488
 DIRECTION dim            1  value   -4.8042739514992820E-005
 DIRECTION dim            2  value   -2.7102447196458734E-004
 DIRECTION dim            3  value    5.4587909803012122E-004
 DIRECTION dim            4  value    1.3189945195461294E-004
 DIRECTION dim            5  value   -6.4108684905762656E-005
 DIRECTION dim            6  value    4.3496989943279682E-006
 DIRECTION dim            7  value   -4.1376758456050276E-005
 DIRECTION dim            8  value   -3.3696619103441465E-004
 DIRECTION dim            9  value    6.1399159342729096E-004
 DIRECTION dim           10  value   -7.1955810164416184E-005
 DIRECTION dim           11  value   -3.5760540132158213E-004
 DIRECTION dim           12  value    9.7164069493577067E-004
 DIRECTION dim           13  value   -1.9294147582568516E-004
 DIRECTION dim           14  value   -5.4549493929717280E-004
 DIRECTION dim           15  value    5.5270420250475808E-004
 DIRECTION dim           16  value   -3.4221425863233384E-004
 DIRECTION dim           17  value    4.9197973044649455E-004
 DIRECTION dim           18  value    1.2532813109560170E-003
 DIRECTION dim           19  value    2.7044735732672112E-006
 DIRECTION dim           20  value    5.9121266890527811E-005
 DIRECTION dim           21  value    9.5909720181096563E-004
 DIRECTION dim           22  value   -2.9427941258451293E-005
 DIRECTION dim           23  value    4.0166395998471029E-004
 DIRECTION dim           24  value    3.6051317925126072E-004
 DIRECTION dim           25  value   -7.9665213494108856E-005
 DIRECTION dim           26  value   -5.5935992598151417E-004
 DIRECTION dim           27  value    3.2748516520578609E-004
 DIRECTION dim           28  value    8.9639434193780566E-005
 DIRECTION dim           29  value   -8.8802797457585041E-005
 DIRECTION dim           30  value    6.4053197112996958E-004
 DIRECTION dim           31  value   -6.2183287814413725E-005
 DIRECTION dim           32  value    1.6526372437873177E-004
 DIRECTION dim           33  value    9.3923359347656600E-004
 DIRECTION dim           34  value    1.3000730296924018E-004
 DIRECTION dim           35  value    1.3908079618890165E-004
 DIRECTION dim           36  value    4.7471209493234597E-004
 DIRECTION dim           37  value    1.5689468597554338E-004
 DIRECTION dim           38  value   -3.0821748004855788E-004
 DIRECTION dim           39  value    5.2377717606147465E-004
 DIRECTION dim           40  value   -7.4332586685175355E-005
 DIRECTION dim           41  value   -3.2526833841019025E-004
 DIRECTION dim           42  value    4.0401740382824748E-004
 DIRECTION dim           43  value   -1.1351278688812421E-002
 DIRECTION dim           44  value   -1.1335926819453120E-002
 DIRECTION dim           45  value   -1.1346634621358896E-002
 DIRECTION dim           46  value   -2.4670996791086414E-007
 DIRECTION dim           47  value   -1.3474176021471555E-007
 DIRECTION dim           48  value   -1.3536668926325189E-007
 ALPHA BEFORE:    76.630772556143228
 XC BEFORE:   0.16662368771395261
  ** Opt : line minimisation
left   ...       0.00000000    -475.56730164
centre ...       1.00000000    -475.56731778
right  ...       2.00000000    -475.56729052

[...]

 ALPHA AFTER:    1.0000000000000000
 XC AFTER:   0.16662636400199773
 SANITY CHECK:    1.0000000000042963
 DIRECTION dim            1  value    2.6762880451110450E-006
 DIRECTION dim            2  value    1.4371819201389236E-005
 DIRECTION dim            3  value    2.6910344566761284E-005
 DIRECTION dim            4  value   -3.4083607941739924E-005
 DIRECTION dim            5  value    3.7239749079649824E-005
 DIRECTION dim            6  value   -3.6903995181145122E-005
 DIRECTION dim            7  value   -1.7293371651312775E-005
 DIRECTION dim            8  value    3.0778889096299915E-005
 DIRECTION dim            9  value   -2.6354743836460541E-005
 DIRECTION dim           10  value   -1.7768091402990855E-005
 DIRECTION dim           11  value    1.8966220258479147E-005
 DIRECTION dim           12  value   -5.8402273026876316E-005
 DIRECTION dim           13  value    9.6943231050509075E-006
 DIRECTION dim           14  value    5.2953380075303572E-005
 DIRECTION dim           15  value    4.7638201281189465E-006
 DIRECTION dim           16  value    2.2100189022402540E-005
 DIRECTION dim           17  value    6.0209078890978256E-005
 DIRECTION dim           18  value   -5.1139664621198232E-005
 DIRECTION dim           19  value   -2.5880887646998909E-005
 DIRECTION dim           20  value    2.6689874507667092E-005
 DIRECTION dim           21  value    3.0656880035772097E-006
 DIRECTION dim           22  value    6.7520315622565619E-006
 DIRECTION dim           23  value    4.5782613291422451E-005
 DIRECTION dim           24  value    2.6591014410528059E-006
 DIRECTION dim           25  value    5.2390018441460696E-006
 DIRECTION dim           26  value    1.2784261716068606E-005
 DIRECTION dim           27  value    9.8708600044742021E-005
 DIRECTION dim           28  value    4.2167492051495078E-008
 DIRECTION dim           29  value    1.7470718191991647E-005
 DIRECTION dim           30  value   -4.7601797989942551E-005
 DIRECTION dim           31  value    3.6021536584723291E-006
 DIRECTION dim           32  value   -8.3998820744613935E-007
 DIRECTION dim           33  value   -3.3570347829699077E-005
 DIRECTION dim           34  value   -3.5448717441897060E-005
 DIRECTION dim           35  value    4.0580292985312939E-005
 DIRECTION dim           36  value    2.5646399475108572E-006
 DIRECTION dim           37  value   -1.1206514778999939E-005
 DIRECTION dim           38  value    8.0293723678779986E-005
 DIRECTION dim           39  value   -5.8655420351234433E-006
 DIRECTION dim           40  value   -1.8308605771678291E-005
 DIRECTION dim           41  value    2.9336738212161191E-005
 DIRECTION dim           42  value    4.7536212617585098E-005
 DIRECTION dim           43  value    7.1075591711364049E-005
 DIRECTION dim           44  value    5.0137468186701347E-005
 DIRECTION dim           45  value    6.4695033478891388E-005
 DIRECTION dim           46  value    3.1277355296933872E-007
 DIRECTION dim           47  value    4.1514812818073920E-007
 DIRECTION dim           48  value    1.6893588534163685E-007
 ALPHA BEFORE:    6.4061542999524539
 XC BEFORE:   0.16662636400199773
  ** Opt : line minimisation
left   ...       0.00000000    -475.56731778
centre ...       1.00000000    -475.56731824
right  ...       2.00000000    -475.56731774

left   ...       0.00000000    -475.56731778
centre ...       1.00000000    -475.56731824
right  ...       2.00000000    -475.56731774
new    ...       1.00000000    -475.56731824

__s__    ...      -1.00000000

 ALPHA AFTER:    1.0000000000000000
 XC AFTER:   0.16662675610102459
 SANITY CHECK:   0.99999999999043288
 DIRECTION dim            1  value    3.9209902686174616E-007
 DIRECTION dim            2  value   -3.1715502014945820E-006
 DIRECTION dim            3  value   -3.3754657091802949E-006
 DIRECTION dim            4  value    7.2673272730272567E-006
 DIRECTION dim            5  value   -5.4933593009002342E-006
 DIRECTION dim            6  value    2.3865023136879260E-006
 DIRECTION dim            7  value    4.0822244634933247E-006
 DIRECTION dim            8  value   -6.1059287416079505E-006
 DIRECTION dim            9  value    4.3204812976457481E-006
 DIRECTION dim           10  value    4.0219097867688680E-006
 DIRECTION dim           11  value   -4.3909112548546767E-006
 DIRECTION dim           12  value    1.1880311331747876E-005
 DIRECTION dim           13  value   -1.8928225434337110E-007
 DIRECTION dim           14  value   -6.9408829814505926E-006
 DIRECTION dim           15  value    2.5829653591002797E-006
 DIRECTION dim           16  value   -1.9743270055609898E-006
 DIRECTION dim           17  value   -4.3778095820441542E-006
 DIRECTION dim           18  value    1.3250552015620963E-005
 DIRECTION dim           19  value    7.1213709496769721E-006
 DIRECTION dim           20  value   -3.7829777345795475E-006
 DIRECTION dim           21  value    2.2695793735557602E-006
 DIRECTION dim           22  value    2.0209879464884863E-006
 DIRECTION dim           23  value   -2.8980613827183332E-006
 DIRECTION dim           24  value   -4.5561539246004865E-007
 DIRECTION dim           25  value    1.9487524766645590E-006
 DIRECTION dim           26  value   -3.7296583593349273E-006
 DIRECTION dim           27  value   -1.4946180280283669E-005
 DIRECTION dim           28  value    1.8017389322699053E-007
 DIRECTION dim           29  value   -1.8160794604310770E-006
 DIRECTION dim           30  value    1.0389866452885222E-005
 DIRECTION dim           31  value   -2.8244641447463465E-007
 DIRECTION dim           32  value    1.6502045521388195E-006
 DIRECTION dim           33  value    8.2426891311863586E-006
 DIRECTION dim           34  value    7.0704691699538004E-006
 DIRECTION dim           35  value   -4.6778773199338955E-006
 DIRECTION dim           36  value   -4.3067831191949741E-007
 DIRECTION dim           37  value    3.5106861002238370E-006
 DIRECTION dim           38  value   -1.3466237093715887E-005
 DIRECTION dim           39  value    7.0999618453908523E-007
 DIRECTION dim           40  value    3.4638958550287808E-006
 DIRECTION dim           41  value   -5.9264033723625060E-006
 DIRECTION dim           42  value   -7.4079099418220127E-006
 DIRECTION dim           43  value   -4.7698211788465806E-006
 DIRECTION dim           44  value    1.9861131738867052E-006
 DIRECTION dim           45  value   -2.7090419850923071E-006
 DIRECTION dim           46  value   -7.2431471190542758E-008
 DIRECTION dim           47  value   -2.9497082423976191E-007
 DIRECTION dim           48  value   -4.1446148818813204E-008

  **** Optimisation achieved ****

  Final energy =    -475.56731824 eV
  Final Gnorm  =       0.00004522

  Components of energy :

  Interatomic potentials     =          65.00956400 eV
  Monopole - monopole (real) =        -237.15341410 eV
  Monopole - monopole (recip)=        -303.42346814 eV
  Monopole - monopole (total)=        -540.57688224 eV
  Total lattice energy       =        -475.56731824 eV
  Total lattice energy       =          -45884.9765 kJ/(mole unit cells)

  Final fractional coordinates of atoms :

   No.  Atomic        x           y          z          Radius
        Label       (Frac)      (Frac)     (Frac)       (Angs)
     1  Sr    c     0.999960    0.999870    0.000550    0.000000
     2  Ti    c     0.166627    0.499870    0.500550    0.000000
     3  O     c     0.999960    0.499870    0.500550    0.000000
     4  O     c     0.166627    0.999870    0.500550    0.000000
     5  O     c     0.166627    0.499870    0.000550    0.000000
     6  Sr    c     0.333294    0.999870    0.000550    0.000000
     7  Ti    c     0.499960    0.499870    0.500550    0.000000
     8  O     c     0.333294    0.499870    0.500550    0.000000
     9  O     c     0.499960    0.999870    0.500550    0.000000
    10  O     c     0.499960    0.499870    0.000549    0.000000
    11  Sr    c     0.666627    0.999870    0.000550    0.000000
    12  Ti    c     0.833293    0.499870    0.500550    0.000000
    13  O     c     0.666627    0.499870    0.500550    0.000000
    14  O     c     0.833294    0.999870    0.500550    0.000000
    15  O     c     0.833294    0.499870    0.000550    0.000000

  Final Cartesian lattice vectors (Angstroms) :

       11.869487   -0.000000   -0.000000
       -0.000000    3.956498    0.000000
       -0.000000    0.000000    3.956496

  Final cell parameters and derivatives :

       a           11.869487 Angstrom     dE/de1(xx)     0.000613 eV/strain
       b            3.956498 Angstrom     dE/de2(yy)     0.000792 eV/strain
       c            3.956496 Angstrom     dE/de3(zz)     0.000658 eV/strain
       alpha       90.000000 Degrees      dE/de4(yz)     0.000001 eV/strain
       beta        90.000000 Degrees      dE/de5(xz)    -0.000003 eV/strain
       gamma       90.000000 Degrees      dE/de6(xy)    -0.000001 eV/strain

  Primitive cell volume =           185.803393 Angs**3

  Density of cell =      4.919939 g/cm**3

  Non-primitive cell volume =           185.803393 Angs**3

  Final internal derivatives :

   No.  Atomic          a             b             c           Radius
        Label          (eV)          (eV)          (eV)        (eV/Angs)
      1 Sr    c       0.000000      0.000000      0.000000      0.000000
      2 Ti    c      -0.000661      0.000011     -0.000086      0.000000
      3 O     c       0.000718      0.000012     -0.000062      0.000000
      4 O     c      -0.000159     -0.000031     -0.000044      0.000000
      5 O     c      -0.000177     -0.000006      0.000156      0.000000
      6 Sr    c      -0.000043      0.000018      0.000022      0.000000
      7 Ti    c      -0.000437      0.000064      0.000233      0.000000
      8 O     c       0.001130     -0.000034     -0.000006      0.000000
      9 O     c       0.000267      0.000073     -0.000020      0.000000
     10 O     c       0.000248     -0.000078     -0.000220      0.000000
     11 Sr    c      -0.000232     -0.000005      0.000023      0.000000
     12 Ti    c      -0.000605      0.000119      0.000152      0.000000
     13 O     c       0.000116     -0.000017     -0.000022      0.000000
     14 O     c       0.000026     -0.000122     -0.000022      0.000000
     15 O     c      -0.000060     -0.000006     -0.000113      0.000000
  Maximum abs         0.001130      0.000122      0.000233      0.000000

  Time to end of optimisation =       0.0335 seconds

 Exiting ------OPTIONS------

  Timing analysis for GULP :

  Task / Subroutine                                          Time (Seconds)
  Calculation of reciprocal space energy and derivatives          0.0035
  Calculation of real space energy and derivatives                0.0227
  Calculation of matrix inversion                                 0.0001

  Job Finished at 13:26.17 21st February   2020