  Job Started  at 13:26.15 21st February   2020

  Number of CPUs =     1

  Total number of configurations input =      1

*  Input for Configuration =   1                                               *

  Formula = O9Sr3Ti3

  Number of irreducible atoms/shells =      15

  Total number atoms/shells =      15

  Dimensionality = 3               :  Bulk

  Cartesian lattice vectors (Angstroms) :

        6.000000    0.000000    0.000000
        0.000000    6.000000    0.000000
        0.000000    0.000000   12.000000

  Cell parameters (Angstroms/Degrees):

  a =       6.0000    alpha =  90.0000
  b =       6.0000    beta  =  90.0000
  c =      12.0000    gamma =  90.0000

  Initial cell volume =         432.000000 Angs**3

  Temperature of configuration =  0.000     K

  Pressure of configuration =         0.000 GPa

  Fractional coordinates of asymmetric unit :

   No.  Atomic       x           y          z         Charge      Occupancy
        Label      (Frac)      (Frac)     (Frac)        (e)         (Frac)
      1 O     c    0.000000    0.333330    0.833330    -2.00000    1.000000
      2 O     c    0.666670 *  0.666670 *  0.000000 *  -2.00000    1.000000
      3 O     c    0.333330 *  0.666670 *  0.166670 *  -2.00000    1.000000
      4 O     c    0.333330 *  0.000000 *  0.166670 *  -2.00000    1.000000
      5 O     c    0.333330 *  0.333330 *  0.166670 *  -2.00000    1.000000
      6 O     c    0.333330 *  0.333330 *  0.833330 *  -2.00000    1.000000
      7 O     c    0.333330 *  0.000000 *  0.500000 *  -2.00000    1.000000
      8 O     c    0.666670 *  0.000000 *  0.000000 *  -2.00000    1.000000
      9 O     c    0.666670 *  0.000000 *  0.166670 *  -2.00000    1.000000
     10 Sr    c    0.500000 *  0.833330 *  0.916670 *   2.00000    1.000000
     11 Sr    c    0.166670 *  0.500000 *  0.916670 *   2.00000    1.000000
     12 Sr    c    0.166670 *  0.833330 *  0.416670 *   2.00000    1.000000
     13 Ti    c    0.833330 *  0.500000 *  0.416670 *   4.00000    1.000000
     14 Ti    c    0.166670 *  0.166670 *  0.916670 *   4.00000    1.000000
     15 Ti    c    0.833330 *  0.833330 *  0.583330 *   4.00000    1.000000

*  General input information                                                   *

  Species output for all configurations :

  Species    Type    Atomic    Atomic    Charge       Radii (Angs)     Library
                     Number     Mass       (e)     Cova   Ionic  VDW   Symbol
    O        Core        8      16.00  -2.000000   0.730  0.000  1.360
    Sr       Core       38      87.62   2.000000   1.120  0.000  1.670
    Ti       Core       22      47.88   4.000000   1.470  0.000  2.190

  Lattice summation method               =    Ewald          (3-D)
                                         =    Parry          (2-D)
                                         =    Saunders et al (1-D)
  Accuracy factor for lattice sums       =   12.000

  Time limit =      15.00 seconds

  Maximum range for interatomic potentials =    100000.000000 Angstroms

  General interatomic potentials :

Atom  Types   Potential      Parameter       Value         Units   Cutoffs(Ang)
  1     2                                                            Min /  Max
O    c Sr   c Buckingham    Buckingham A     1952.3900    eV        0.000 10.000
                            Buckingham rho  0.33685000    Ang
                            Buckingham C     19.220000    eV*Ang^6
O    c Ti   c Buckingham    Buckingham A     4590.7279    eV        0.000 10.000
                            Buckingham rho  0.26100000    Ang
                            Buckingham C     0.0000000    eV*Ang^6
O    c O    c Buckingham    Buckingham A     1388.7700    eV        0.000 10.000
                            Buckingham rho  0.36262000    Ang
                            Buckingham C     175.00000    eV*Ang^6
 Calling ------OPTIONS------

*  Output for configuration   1                                                *

  Components of energy :

  Interatomic potentials     =          86.73882635 eV
  Monopole - monopole (real) =         -15.03500613 eV
  Monopole - monopole (recip)=        -125.05826005 eV
  Monopole - monopole (total)=        -140.09326618 eV
  Total lattice energy       =         -53.35443983 eV
  Total lattice energy       =           -5147.8878 kJ/(mole unit cells)

  Number of variables =       48

  Maximum number of calculations  =          1000
  Maximum Hessian update interval =            10
  Maximum step size               =   1.000000000
  Maximum parameter tolerance     =   0.000010000
  Maximum function  tolerance     =   0.000010000
  Maximum gradient  tolerance     =   0.001000000
  Maximum gradient  component     =   0.010000000

  Cell parameters to be optimised using strains

  Newton-Raphson optimiser to be used

  BFGS hessian update to be used

  Lower half triangular hessian to be used

  Start of bulk optimisation :

  ** Hessian calculated **
 ALPHA BEFORE:    1.0000000000000000
 XC BEFORE:   0.66666999999995369
  ** Opt : line minimisation
left   ...       0.00000000     -53.35443983
centre ...       0.25000000     -58.00157871
right  ...       0.50000000     -62.51862460

left   ...       0.00000000     -53.35443983
centre ...       0.25000000     -58.00157871
right  ...       0.50000000     -62.51862460
new    ...       1.50000000     -78.39515649

__s__    ...       1.00000000

[...]

 ALPHA AFTER:    2.7240054626107124
 XC AFTER:   0.55856282084781472
 SANITY CHECK:    2.7240054626107164
 DIRECTION dim            1  value   -3.9686843743891712E-002
 DIRECTION dim            2  value   -1.5526741928772493E-002
 DIRECTION dim            3  value   -7.1083847646265172E-003
 DIRECTION dim            4  value    2.4525013568847814E-003
 DIRECTION dim            5  value   -1.7230633684581548E-003
 DIRECTION dim            6  value   -1.1056892320399116E-002
 DIRECTION dim            7  value   -2.4470297870407911E-002
 DIRECTION dim            8  value    4.4957415915104779E-003
 DIRECTION dim            9  value   -3.4760092052007288E-003
 DIRECTION dim           10  value   -1.0279868532646286E-002
 DIRECTION dim           11  value    7.2453191864544980E-004
 DIRECTION dim           12  value   -6.5742262248367446E-003
 DIRECTION dim           13  value    1.6776902299094874E-002
 DIRECTION dim           14  value    4.4481016899959244E-003
 DIRECTION dim           15  value   -5.9867835709995982E-003
 DIRECTION dim           16  value   -5.3380212488767724E-002
 DIRECTION dim           17  value   -3.2821306586386496E-002
 DIRECTION dim           18  value    1.3960819330606211E-003
 DIRECTION dim           19  value   -1.2291562925739945E-002
 DIRECTION dim           20  value   -4.5272582884854995E-003
 DIRECTION dim           21  value   -1.5654119707851064E-002
 DIRECTION dim           22  value    5.1889553122407882E-003
 DIRECTION dim           23  value   -6.6816006372971233E-003
 DIRECTION dim           24  value   -1.5662178016738991E-003
 DIRECTION dim           25  value   -5.1228295514824301E-002
 DIRECTION dim           26  value   -1.1944473518527111E-002
 DIRECTION dim           27  value   -3.9299327276878099E-003
 DIRECTION dim           28  value    5.4389760231844438E-003
 DIRECTION dim           29  value    2.1994137800585719E-003
 DIRECTION dim           30  value    6.3092575879295067E-003
 DIRECTION dim           31  value   -3.6950245980319936E-002
 DIRECTION dim           32  value   -5.3655841985943510E-002
 DIRECTION dim           33  value   -7.6102900766667992E-003
 DIRECTION dim           34  value   -4.9075844568269432E-002
 DIRECTION dim           35  value   -2.4141327258683416E-002
 DIRECTION dim           36  value   -1.1674272453741511E-002
 DIRECTION dim           37  value    4.0356672154751878E-003
 DIRECTION dim           38  value    3.7548868504420885E-003
 DIRECTION dim           39  value    1.4284395488324223E-002
 DIRECTION dim           40  value   -8.0877080474622623E-002
 DIRECTION dim           41  value   -5.9960750653559715E-003
 DIRECTION dim           42  value    6.3089037883937887E-004
 DIRECTION dim           43  value   -8.8890772398717816E-002
 DIRECTION dim           44  value   -3.6738769503519460E-002
 DIRECTION dim           45  value   -5.3491578022969423E-002
 DIRECTION dim           46  value   -6.7635298156153364E-003
 DIRECTION dim           47  value    4.7554174927159736E-002
 DIRECTION dim           48  value   -1.7879331822599986E-002
  ** Hessian calculated **
 ALPHA BEFORE:    1.0000000000000000
 XC BEFORE:   0.55856282084781472
  ** Opt : line minimisation
left   ...       0.00000000     -87.98929276
centre ...       0.25000000     -90.06918011
right  ...       0.50000000     -95.94136460

[...]

 ALPHA AFTER:    0.0000000000000000
 XC AFTER:   0.82787823784788495
 SANITY CHECK:    0.0000000000000000
 DIRECTION dim            1  value    1.0229043234629169E-002
 DIRECTION dim            2  value    4.3950720752122798E-003
 DIRECTION dim            3  value   -9.6544415515894179E-006
 DIRECTION dim            4  value   -1.0229046474034080E-002
 DIRECTION dim            5  value   -4.3950768711609372E-003
 DIRECTION dim            6  value    9.6578497678362222E-006
 DIRECTION dim            7  value    3.8902144152146516E-003
 DIRECTION dim            8  value   -1.0812439747625286E-002
 DIRECTION dim            9  value   -1.0271131295647726E-002
 DIRECTION dim           10  value   0.49574418293714906
 DIRECTION dim           11  value    1.4085385448698721E-002
 DIRECTION dim           12  value   -4.9353346602347130E-002
 DIRECTION dim           13  value   -9.0623229121330251E-002
 DIRECTION dim           14  value   -8.2213828442171469E-002
 DIRECTION dim           15  value   -7.6969308161927638E-002
 DIRECTION dim           16  value  -0.52421606297016310
 DIRECTION dim           17  value    6.9521191748386821E-002
 DIRECTION dim           18  value    4.1453527612305412E-002
 DIRECTION dim           19  value    4.3062569658168612E-002
 DIRECTION dim           20  value   -3.8609296471904378E-002
 DIRECTION dim           21  value    4.3829101632573406E-002
 DIRECTION dim           22  value   -3.8823841020192078E-003
 DIRECTION dim           23  value    1.0812201404703891E-002
 DIRECTION dim           24  value    1.0268013738176707E-002
 DIRECTION dim           25  value   -5.4210434413366392E-002
 DIRECTION dim           26  value    7.3262792238950505E-002
 DIRECTION dim           27  value  -0.16757000384303766
 DIRECTION dim           28  value   -4.2017577755793574E-002
 DIRECTION dim           29  value    5.3457567788022346E-002
 DIRECTION dim           30  value   -2.2956443327732775E-002
 DIRECTION dim           31  value   -3.0682124950683867E-002
 DIRECTION dim           32  value   -4.4942802370666182E-002
 DIRECTION dim           33  value    2.2268461521960301E-002
 DIRECTION dim           34  value   -3.5946504975005844E-002
 DIRECTION dim           35  value   0.11306302850102491
 DIRECTION dim           36  value   -3.8124149081002312E-002
 DIRECTION dim           37  value  -0.69412033435366605
 DIRECTION dim           38  value   -2.6200860969911994E-002
 DIRECTION dim           39  value    5.1534381569371138E-002
 DIRECTION dim           40  value    9.2810364156595770E-002
 DIRECTION dim           41  value  -0.44792949640061264
 DIRECTION dim           42  value    2.7053689321753036E-002
 DIRECTION dim           43  value   0.23650228563426215
 DIRECTION dim           44  value   0.28147225320885794
 DIRECTION dim           45  value   -3.9273966519812822
 DIRECTION dim           46  value   0.24242676966826465
 DIRECTION dim           47  value   0.47885803693734119
 DIRECTION dim           48  value   0.13192306654854427
  ** Hessian calculated **
 ALPHA BEFORE:    1.0000000000000000
 XC BEFORE:   0.82787823784788495
  ** Opt : line minimisation
left   ...       0.00000000-2801369.84019073
centre ...       0.10184864-2094595.33786773
right  ...      -0.10184864 -395953.70735318

left   ...      -0.10184864 -395953.70735318
centre ...       0.00000000-2801369.84019073
right  ...       0.10184864-2094595.33786773
new    ...       0.00000000-2801369.84019073

__s__    ...       0.10184864

 ALPHA AFTER:    0.0000000000000000
 XC AFTER:   0.82787823784788495
 SANITY CHECK:    0.0000000000000000
 DIRECTION dim            1  value    1.0229043234629169E-002
 DIRECTION dim            2  value    4.3950720752122798E-003
 DIRECTION dim            3  value   -9.6544415515894179E-006
 DIRECTION dim            4  value   -1.0229046474034080E-002
 DIRECTION dim            5  value   -4.3950768711609372E-003
 DIRECTION dim            6  value    9.6578497678362222E-006
 DIRECTION dim            7  value    3.8902144152146516E-003
 DIRECTION dim            8  value   -1.0812439747625286E-002
 DIRECTION dim            9  value   -1.0271131295647726E-002
 DIRECTION dim           10  value   0.49574418293714906
 DIRECTION dim           11  value    1.4085385448698721E-002
 DIRECTION dim           12  value   -4.9353346602347130E-002
 DIRECTION dim           13  value   -9.0623229121330251E-002
 DIRECTION dim           14  value   -8.2213828442171469E-002
 DIRECTION dim           15  value   -7.6969308161927638E-002
 DIRECTION dim           16  value  -0.52421606297016310
 DIRECTION dim           17  value    6.9521191748386821E-002
 DIRECTION dim           18  value    4.1453527612305412E-002
 DIRECTION dim           19  value    4.3062569658168612E-002
 DIRECTION dim           20  value   -3.8609296471904378E-002
 DIRECTION dim           21  value    4.3829101632573406E-002
 DIRECTION dim           22  value   -3.8823841020192078E-003
 DIRECTION dim           23  value    1.0812201404703891E-002
 DIRECTION dim           24  value    1.0268013738176707E-002
 DIRECTION dim           25  value   -5.4210434413366392E-002
 DIRECTION dim           26  value    7.3262792238950505E-002
 DIRECTION dim           27  value  -0.16757000384303766
 DIRECTION dim           28  value   -4.2017577755793574E-002
 DIRECTION dim           29  value    5.3457567788022346E-002
 DIRECTION dim           30  value   -2.2956443327732775E-002
 DIRECTION dim           31  value   -3.0682124950683867E-002
 DIRECTION dim           32  value   -4.4942802370666182E-002
 DIRECTION dim           33  value    2.2268461521960301E-002
 DIRECTION dim           34  value   -3.5946504975005844E-002
 DIRECTION dim           35  value   0.11306302850102491
 DIRECTION dim           36  value   -3.8124149081002312E-002
 DIRECTION dim           37  value  -0.69412033435366605
 DIRECTION dim           38  value   -2.6200860969911994E-002
 DIRECTION dim           39  value    5.1534381569371138E-002
 DIRECTION dim           40  value    9.2810364156595770E-002
 DIRECTION dim           41  value  -0.44792949640061264
 DIRECTION dim           42  value    2.7053689321753036E-002
 DIRECTION dim           43  value   0.23650228563426215
 DIRECTION dim           44  value   0.28147225320885794
 DIRECTION dim           45  value   -3.9273966519812822
 DIRECTION dim           46  value   0.24242676966826465
 DIRECTION dim           47  value   0.47885803693734119
 DIRECTION dim           48  value   0.13192306654854427

  **** Conditions for a minimum have not been satisfied. However ****
  **** no lower point can be found - treat results with caution  ****
  **** unless gradient norm is small (less than 0.1)             ****

  Final energy = **************** eV
  Final Gnorm  = 8539430.64418749

  Components of energy :

  Interatomic potentials     =    -2801177.94614176 eV
  Monopole - monopole (real) =         122.94304044 eV
  Monopole - monopole (recip)=        -314.83708941 eV
  Monopole - monopole (total)=        -191.89404897 eV
  Total lattice energy       =    -2801369.84019073 eV
  Total lattice energy       =      -270289366.7185 kJ/(mole unit cells)

  Final fractional coordinates of atoms :

   No.  Atomic        x           y          z          Radius
        Label       (Frac)      (Frac)     (Frac)       (Angs)
     1  O     c     0.000000    0.333330    0.833330    0.000000
     2  O     c     0.827878    0.567903    0.075225    0.000000
     3  O     c     0.768105    0.563530    0.044638    0.000000
     4  O     c     0.433060    0.874810    0.205129    0.000000
     5  O     c     0.529252    0.191269    0.217859    0.000000
     6  O     c     0.368800    0.272456    0.841236    0.000000
     7  O     c     0.555800    0.884633    0.566054    0.000000
     8  O     c     0.806896    0.085358    0.998265    0.000000
     9  O     c     0.453581    0.951865    0.216733    0.000000
    10  Sr    c     0.578543    0.773516    0.001055    0.000000
    11  Sr    c     0.249029    0.549955    0.999550    0.000000
    12  Sr    c     0.435036    0.641341    0.342985    0.000000
    13  Ti    c     0.740786    0.268563    0.572130    0.000000
    14  Ti    c     0.250012    0.175161    0.044900    0.000000
    15  Ti    c     0.862397    0.831545    0.298405    0.000000

  Final Cartesian lattice vectors (Angstroms) :

        4.755953   -0.195074   -1.756635
       -0.195074    6.004861   -0.423464
       -3.513270   -0.846927    6.539191

  Final cell parameters and derivatives :

       a            5.073747 Angstrom     dE/de1(xx) ************ eV/strain
       b            6.022933 Angstrom     dE/de2(yy) ************ eV/strain
       c            7.471370 Angstrom     dE/de3(zz) ************ eV/strain
       alpha       99.167572 Degrees      dE/de4(yz) ************ eV/strain
       beta       137.684031 Degrees      dE/de5(xz) ************ eV/strain
       gamma       92.541901 Degrees      dE/de6(xy) ************ eV/strain

  Primitive cell volume =           147.157488 Angs**3

  Density of cell =      6.211993 g/cm**3

  Non-primitive cell volume =           147.157488 Angs**3

  Final internal derivatives :

   No.  Atomic          a             b             c           Radius
        Label          (eV)          (eV)          (eV)        (eV/Angs)
      1 O     c       0.000000      0.000000      0.000000      0.000000
      2 O     c **************************** 226167.932621      0.000000
      3 O     c ****************************-226247.770232      0.000000
      4 O     c  -60358.480989************** 293649.884626      0.000000
      5 O     c    -792.634526    181.955489   -628.855257      0.000000
      6 O     c      92.058982     84.457141     12.659252      0.000000
      7 O     c      67.171486    -65.588619   -143.423521      0.000000
      8 O     c     -32.960250     55.238945    -21.492515      0.000000
      9 O     c   60233.9865921642174.954732-293538.516084      0.000000
     10 Sr    c      42.542322   -321.806763    295.695748      0.000000
     11 Sr    c     -29.805207   -272.220127    -30.792509      0.000000
     12 Sr    c      29.674605    114.821557    -69.943779      0.000000
     13 Ti    c     -58.976023    167.581408    448.044873      0.000000
     14 Ti    c     801.132909   -157.818005    553.776535      0.000000
     15 Ti    c     -68.974445    -47.991359    -86.354578      0.000000
  Maximum abs   **************************** 293649.884626      0.000000

  Time to end of optimisation =       0.2546 seconds

 Exiting ------OPTIONS------

  Timing analysis for GULP :

  Task / Subroutine                                          Time (Seconds)
  Calculation of reciprocal space energy and derivatives          0.0207
  Calculation of real space energy and derivatives                0.2236
  Calculation and manipulation of Hessian matrix                  0.0002
  Calculation of matrix inversion                                 0.0008

  Job Finished at 13:26.15 21st February   2020