  Job Started  at 13:26.16 21st February   2020

  Number of CPUs =     1

  Total number of configurations input =      1

*  Input for Configuration =   1                                               *

  Formula = O9Sr3Ti3

  Number of irreducible atoms/shells =      15

  Total number atoms/shells =      15

  Dimensionality = 3               :  Bulk

  Cartesian lattice vectors (Angstroms) :

        4.000000    0.000000    0.000000
        0.000000    4.000000    0.000000
        0.000000    0.000000    8.000000

  Cell parameters (Angstroms/Degrees):

  a =       4.0000    alpha =  90.0000
  b =       4.0000    beta  =  90.0000
  c =       8.0000    gamma =  90.0000

  Initial cell volume =         128.000000 Angs**3

  Temperature of configuration =  0.000     K

  Pressure of configuration =         0.000 GPa

  Fractional coordinates of asymmetric unit :

   No.  Atomic       x           y          z         Charge      Occupancy
        Label      (Frac)      (Frac)     (Frac)        (e)         (Frac)
      1 O     c    0.500000    0.500000    0.750000    -2.00000    1.000000
      2 O     c    0.500000 *  0.000000 *  0.750000 *  -2.00000    1.000000
      3 O     c    0.000000 *  0.500000 *  0.750000 *  -2.00000    1.000000
      4 O     c    0.000000 *  0.500000 *  0.000000 *  -2.00000    1.000000
      5 O     c    0.000000 *  0.000000 *  0.250000 *  -2.00000    1.000000
      6 O     c    0.500000 *  0.000000 *  0.250000 *  -2.00000    1.000000
      7 O     c    0.500000 *  0.500000 *  0.250000 *  -2.00000    1.000000
      8 O     c    0.500000 *  0.500000 *  0.500000 *  -2.00000    1.000000
      9 O     c    0.500000 *  0.000000 *  0.500000 *  -2.00000    1.000000
     10 Sr    c    0.250000 *  0.750000 *  0.375000 *   2.00000    1.000000
     11 Sr    c    0.250000 *  0.750000 *  0.875000 *   2.00000    1.000000
     12 Sr    c    0.250000 *  0.250000 *  0.625000 *   2.00000    1.000000
     13 Ti    c    0.250000 *  0.750000 *  0.625000 *   4.00000    1.000000
     14 Ti    c    0.750000 *  0.250000 *  0.875000 *   4.00000    1.000000
     15 Ti    c    0.750000 *  0.750000 *  0.375000 *   4.00000    1.000000

*  General input information                                                   *

  Species output for all configurations :

  Species    Type    Atomic    Atomic    Charge       Radii (Angs)     Library
                     Number     Mass       (e)     Cova   Ionic  VDW   Symbol
    O        Core        8      16.00  -2.000000   0.730  0.000  1.360
    Sr       Core       38      87.62   2.000000   1.120  0.000  1.670
    Ti       Core       22      47.88   4.000000   1.470  0.000  2.190

  Lattice summation method               =    Ewald          (3-D)
                                         =    Parry          (2-D)
                                         =    Saunders et al (1-D)
  Accuracy factor for lattice sums       =   12.000

  Time limit =      15.00 seconds

  Maximum range for interatomic potentials =    100000.000000 Angstroms

  General interatomic potentials :

Atom  Types   Potential      Parameter       Value         Units   Cutoffs(Ang)
  1     2                                                            Min /  Max
O    c Sr   c Buckingham    Buckingham A     1952.3900    eV        0.000 10.000
                            Buckingham rho  0.33685000    Ang
                            Buckingham C     19.220000    eV*Ang^6
O    c Ti   c Buckingham    Buckingham A     4590.7279    eV        0.000 10.000
                            Buckingham rho  0.26100000    Ang
                            Buckingham C     0.0000000    eV*Ang^6
O    c O    c Buckingham    Buckingham A     1388.7700    eV        0.000 10.000
                            Buckingham rho  0.36262000    Ang
                            Buckingham C     175.00000    eV*Ang^6
 Calling ------OPTIONS------

*  Output for configuration   1                                                *

  Components of energy :

  Interatomic potentials     =         283.74069147 eV
  Monopole - monopole (real) =        -200.67401279 eV
  Monopole - monopole (recip)=        -313.23454466 eV
  Monopole - monopole (total)=        -513.90855745 eV
  Total lattice energy       =        -230.16786598 eV
  Total lattice energy       =          -22207.6806 kJ/(mole unit cells)

  Number of variables =       48

  Maximum number of calculations  =          1000
  Maximum Hessian update interval =            10
  Maximum step size               =   1.000000000
  Maximum parameter tolerance     =   0.000010000
  Maximum function  tolerance     =   0.000010000
  Maximum gradient  tolerance     =   0.001000000
  Maximum gradient  component     =   0.010000000

  Cell parameters to be optimised using strains

  Newton-Raphson optimiser to be used

  BFGS hessian update to be used

  Lower half triangular hessian to be used

  Start of bulk optimisation :

  ** Hessian calculated **
 ALPHA BEFORE:    1.0000000000000000
 XC BEFORE:   0.50000000000000000
  ** Opt : line minimisation
left   ...       0.00000000    -230.16786598
centre ...       0.25000000    -282.18847906
right  ...       0.50000000    -319.03327522

left   ...       0.00000000    -230.16786598
centre ...       0.25000000    -282.18847906
right  ...       0.50000000    -319.03327522
new    ...       0.98196561    -358.58070466

__s__    ...       0.48196561

[...]

 ALPHA AFTER:    1.5674042425750139
 XC AFTER:   0.57468393615130253
 SANITY CHECK:    1.5674042425750161
 DIRECTION dim            1  value    4.7648165114449186E-002
 DIRECTION dim            2  value   -9.3251085157628139E-004
 DIRECTION dim            3  value    5.3421742021250379E-003
 DIRECTION dim            4  value   -1.6051867568047072E-002
 DIRECTION dim            5  value    2.7219088003335545E-003
 DIRECTION dim            6  value   -1.0801075634254947E-002
 DIRECTION dim            7  value   -3.5087635228518911E-002
 DIRECTION dim            8  value   -4.4041054571478770E-002
 DIRECTION dim            9  value    9.8856433057360857E-004
 DIRECTION dim           10  value   -1.1596079791437107E-002
 DIRECTION dim           11  value    2.3990736643674810E-002
 DIRECTION dim           12  value    1.0088862853564506E-002
 DIRECTION dim           13  value    1.9974848817985322E-002
 DIRECTION dim           14  value    1.0137002791965619E-002
 DIRECTION dim           15  value   -3.6691177806636249E-002
 DIRECTION dim           16  value    6.6699582149053124E-002
 DIRECTION dim           17  value   -7.6097191229861612E-003
 DIRECTION dim           18  value   -1.7193383239578121E-002
 DIRECTION dim           19  value    7.7343567360754858E-002
 DIRECTION dim           20  value    4.7779319911255514E-003
 DIRECTION dim           21  value    5.1250171491233516E-003
 DIRECTION dim           22  value    7.7523827430867734E-002
 DIRECTION dim           23  value   -4.7572430195321411E-003
 DIRECTION dim           24  value    7.3005611971818539E-003
 DIRECTION dim           25  value   -2.3876797423325262E-002
 DIRECTION dim           26  value   -2.1029481536266496E-002
 DIRECTION dim           27  value   -1.4322925561069457E-002
 DIRECTION dim           28  value    1.6232033502375945E-003
 DIRECTION dim           29  value    2.9538040731117970E-002
 DIRECTION dim           30  value    3.2365588590468973E-002
 DIRECTION dim           31  value   -4.6804513828837192E-002
 DIRECTION dim           32  value   -6.9069551466513137E-003
 DIRECTION dim           33  value   -1.3742779228629062E-002
 DIRECTION dim           34  value    1.6993276016881560E-002
 DIRECTION dim           35  value   -2.6651472730916418E-003
 DIRECTION dim           36  value    5.3696937577210424E-005
 DIRECTION dim           37  value   -3.0308837394779401E-003
 DIRECTION dim           38  value    6.6942616168063178E-003
 DIRECTION dim           39  value    2.5466195768767130E-002
 DIRECTION dim           40  value   -5.8706245754162204E-003
 DIRECTION dim           41  value    2.7368510367459017E-003
 DIRECTION dim           42  value   -2.5847387255422134E-002
 DIRECTION dim           43  value   0.14608136281169917
 DIRECTION dim           44  value   0.14257000711626600
 DIRECTION dim           45  value   0.11719745165577677
 DIRECTION dim           46  value    1.5395977048941424E-002
 DIRECTION dim           47  value   -1.5547306254936652E-002
 DIRECTION dim           48  value    1.5157571022650284E-004
  ** Hessian calculated **
 ALPHA BEFORE:    1.0000000000000000
 XC BEFORE:   0.57468393615130253
  ** Opt : line minimisation
left   ...       0.00000000    -371.70634515
centre ...       0.25000000    -369.80206967
right  ...      -0.25000000    -373.59110449

[...]

 ALPHA AFTER:   0.47685067108025103
 XC AFTER:   0.72895512401920792
 SANITY CHECK:   0.47685067108025114
 DIRECTION dim            1  value    5.3511383166099193E-002
 DIRECTION dim            2  value    9.2652888158693512E-003
 DIRECTION dim            3  value   -2.6661984852964952E-002
 DIRECTION dim            4  value   -7.7152220106957478E-002
 DIRECTION dim            5  value    7.3448336885556492E-002
 DIRECTION dim            6  value    6.8220367694464433E-003
 DIRECTION dim            7  value    7.7733306898473678E-003
 DIRECTION dim            8  value   -1.4977525703570055E-003
 DIRECTION dim            9  value    2.3058919281185356E-003
 DIRECTION dim           10  value   -1.7442990784884937E-002
 DIRECTION dim           11  value   -2.4521056636876259E-002
 DIRECTION dim           12  value    3.6074301783750817E-002
 DIRECTION dim           13  value    7.1279850440147431E-003
 DIRECTION dim           14  value    4.6340882598946323E-002
 DIRECTION dim           15  value    7.2475406178598000E-003
 DIRECTION dim           16  value    3.9291094337244288E-003
 DIRECTION dim           17  value    9.9515127868462627E-003
 DIRECTION dim           18  value   -5.6206567470873667E-003
 DIRECTION dim           19  value  -0.10931661642280154
 DIRECTION dim           20  value   0.12513720229680930
 DIRECTION dim           21  value    2.2366754629800537E-002
 DIRECTION dim           22  value    4.3906594702205690E-002
 DIRECTION dim           23  value   -5.7796952970639607E-003
 DIRECTION dim           24  value    9.7494871890766105E-004
 DIRECTION dim           25  value   -6.4298036902222279E-003
 DIRECTION dim           26  value   -5.1921685563964468E-002
 DIRECTION dim           27  value   -1.7083704404823109E-003
 DIRECTION dim           28  value    4.2435253022866701E-002
 DIRECTION dim           29  value   -9.0445290616209635E-004
 DIRECTION dim           30  value    2.2932897147930731E-002
 DIRECTION dim           31  value   -1.5477376687201651E-002
 DIRECTION dim           32  value   -1.2199905294184153E-002
 DIRECTION dim           33  value   -1.5844209667113356E-002
 DIRECTION dim           34  value    9.8617993079567909E-002
 DIRECTION dim           35  value   -2.3831227402080807E-003
 DIRECTION dim           36  value   -1.0827338361989250E-002
 DIRECTION dim           37  value   -1.8075911755003334E-002
 DIRECTION dim           38  value   -1.6309345873800167E-002
 DIRECTION dim           39  value    4.7695418341461805E-003
 DIRECTION dim           40  value   -8.9264483223368135E-003
 DIRECTION dim           41  value   -9.7838225034456456E-003
 DIRECTION dim           42  value   -1.2416200087323926E-002
 DIRECTION dim           43  value   -5.9238305361896650E-002
 DIRECTION dim           44  value   -3.1511309918685532E-002
 DIRECTION dim           45  value   -2.5286709934839797E-002
 DIRECTION dim           46  value   -3.9256469978990426E-003
 DIRECTION dim           47  value    2.8940999104393104E-002
 DIRECTION dim           48  value   -3.6247005866626020E-002
 ALPHA BEFORE:   0.61032781722294349
 XC BEFORE:   0.72895512401920792
  ** Opt : line minimisation
left   ...       0.00000000    -451.25268614
centre ...       0.15258195    -453.13098239
right  ...       0.30516391    -454.31046104

[...]

 ALPHA AFTER:   0.80998842449128994
 XC AFTER:   0.50673862660903424
 SANITY CHECK:   0.80998842449125374
 DIRECTION dim            1  value   -2.5988327390085966E-003
 DIRECTION dim            2  value   -3.3425580971480626E-004
 DIRECTION dim            3  value    2.1414315214650734E-003
 DIRECTION dim            4  value    3.1677117826824926E-004
 DIRECTION dim            5  value   -9.8077836768377218E-004
 DIRECTION dim            6  value   -5.1092431745358214E-004
 DIRECTION dim            7  value   -1.7190023945707158E-003
 DIRECTION dim            8  value   -1.0224176592351505E-003
 DIRECTION dim            9  value   -8.8088038304244963E-005
 DIRECTION dim           10  value   -3.7255155590956639E-003
 DIRECTION dim           11  value   -2.4223585649343943E-003
 DIRECTION dim           12  value   -8.9460361008484733E-004
 DIRECTION dim           13  value   -1.3976473501321818E-003
 DIRECTION dim           14  value    3.1064498547395845E-003
 DIRECTION dim           15  value    2.5546105483218633E-003
 DIRECTION dim           16  value   -5.2591994439345584E-003
 DIRECTION dim           17  value    2.7830817709133078E-003
 DIRECTION dim           18  value   -7.0777416609416754E-005
 DIRECTION dim           19  value   -2.4528479604537163E-003
 DIRECTION dim           20  value    2.1390300515083415E-003
 DIRECTION dim           21  value    9.4731745968773713E-004
 DIRECTION dim           22  value   -3.6658583301319076E-004
 DIRECTION dim           23  value    1.4555416639528739E-003
 DIRECTION dim           24  value    2.0556429921761116E-003
 DIRECTION dim           25  value   -7.8810016989290035E-003
 DIRECTION dim           26  value    9.1698276296332502E-003
 DIRECTION dim           27  value    1.0425609366321556E-003
 DIRECTION dim           28  value   -1.8065616697255367E-003
 DIRECTION dim           29  value    1.9510706009675570E-003
 DIRECTION dim           30  value   -4.7697957040754638E-004
 DIRECTION dim           31  value    3.8272295165448231E-003
 DIRECTION dim           32  value   -3.9913498755903328E-003
 DIRECTION dim           33  value    1.4330505996841126E-003
 DIRECTION dim           34  value    4.0111919218994318E-004
 DIRECTION dim           35  value   -3.2363274188397225E-004
 DIRECTION dim           36  value    8.7308815745701851E-004
 DIRECTION dim           37  value   -2.0818388942561500E-003
 DIRECTION dim           38  value    5.9586348459391943E-004
 DIRECTION dim           39  value    1.2960799832767123E-003
 DIRECTION dim           40  value   -3.7534898732814502E-003
 DIRECTION dim           41  value    2.5903967122818876E-003
 DIRECTION dim           42  value    8.0170030120164904E-004
 DIRECTION dim           43  value   -1.1222612278966447E-003
 DIRECTION dim           44  value   -1.2094656845210931E-003
 DIRECTION dim           45  value    1.2624769399493152E-003
 DIRECTION dim           46  value   -7.3884590505978757E-003
 DIRECTION dim           47  value    9.3075129159592568E-003
 DIRECTION dim           48  value    3.3792707760205848E-003
  ** Hessian calculated **
 ALPHA BEFORE:    1.0000000000000000
 XC BEFORE:   0.50673862660903424
  ** Opt : line minimisation
left   ...       0.00000000    -470.01184357
centre ...       0.25000000    -470.01301883
right  ...       0.50000000    -470.01367422

[...]

 ALPHA AFTER:    1.0417465275353954
 XC AFTER:   0.50602419426976619
 SANITY CHECK:    1.0417465275372237
 DIRECTION dim            1  value   -5.0133566479740329E-005
 DIRECTION dim            2  value    3.9382780971649915E-007
 DIRECTION dim            3  value   -3.9375176729036755E-007
 DIRECTION dim            4  value   -2.6535441286241614E-005
 DIRECTION dim            5  value   -3.0574693263095079E-005
 DIRECTION dim            6  value    6.4524359964479889E-006
 DIRECTION dim            7  value   -5.1234483462565755E-005
 DIRECTION dim            8  value   -8.4579372590553670E-005
 DIRECTION dim            9  value   -2.1596512704146882E-006
 DIRECTION dim           10  value   -7.6338866071030118E-005
 DIRECTION dim           11  value   -1.8281159924074644E-004
 DIRECTION dim           12  value   -1.5798023215189963E-005
 DIRECTION dim           13  value   -3.6854048139586626E-005
 DIRECTION dim           14  value   -1.5705571706422789E-006
 DIRECTION dim           15  value    5.8826144327580353E-006
 DIRECTION dim           16  value   -7.8935043647395582E-005
 DIRECTION dim           17  value   -3.7194921096796082E-006
 DIRECTION dim           18  value   -4.7631572005190840E-006
 DIRECTION dim           19  value   -1.1300947821261808E-005
 DIRECTION dim           20  value    2.6506008353432339E-005
 DIRECTION dim           21  value    7.4384879410347557E-006
 DIRECTION dim           22  value   -1.1489371905436458E-005
 DIRECTION dim           23  value   -1.4828662246474145E-005
 DIRECTION dim           24  value   -6.0018991172310860E-006
 DIRECTION dim           25  value   -3.4133510013928510E-005
 DIRECTION dim           26  value    1.3780079342323246E-004
 DIRECTION dim           27  value    4.2417824392920300E-006
 DIRECTION dim           28  value   -3.2831155540057001E-005
 DIRECTION dim           29  value    4.3781580451573206E-005
 DIRECTION dim           30  value   -2.6007581309317922E-006
 DIRECTION dim           31  value   -3.8557167837295349E-005
 DIRECTION dim           32  value   -1.9462362448018577E-005
 DIRECTION dim           33  value   -5.7878828013645510E-006
 DIRECTION dim           34  value   -1.6947763909110677E-005
 DIRECTION dim           35  value   -8.2764847888359942E-006
 DIRECTION dim           36  value    8.1978805189355824E-006
 DIRECTION dim           37  value   -3.7548440869211554E-005
 DIRECTION dim           38  value   -1.0770495654552985E-005
 DIRECTION dim           39  value    1.6836800811828504E-006
 DIRECTION dim           40  value   -4.0032481696364449E-005
 DIRECTION dim           41  value   -1.7627995909092525E-005
 DIRECTION dim           42  value   -3.3761362646650276E-006
 DIRECTION dim           43  value    2.3746973303914891E-004
 DIRECTION dim           44  value    3.5326083782175608E-005
 DIRECTION dim           45  value   -1.0066501848231321E-005
 DIRECTION dim           46  value   -2.8872448569783468E-005
 DIRECTION dim           47  value   -6.9602945287442562E-005
 DIRECTION dim           48  value    3.2215641283102358E-004
 ALPHA BEFORE:    4.0491857141682326
 XC BEFORE:   0.50602419426976619
  ** Opt : line minimisation
left   ...       0.00000000    -470.01427652
centre ...       1.00000000    -470.01427795
right  ...       2.00000000    -470.01427728

left   ...       0.00000000    -470.01427652
centre ...       1.00000000    -470.01427795
right  ...       2.00000000    -470.01427728
new    ...       1.18113504    -470.01427799

__s__    ...      -0.81886496

 ALPHA AFTER:    1.1811350419299926
 XC AFTER:   0.50603634381810869
 SANITY CHECK:    1.1811350419303355
 DIRECTION dim            1  value    1.0286332985806008E-005
 DIRECTION dim            2  value   -5.1993490656822494E-006
 DIRECTION dim            3  value    6.9973410849437568E-006
 DIRECTION dim            4  value    1.1824195123393321E-005
 DIRECTION dim            5  value    3.2053112122604712E-007
 DIRECTION dim            6  value   -1.4836016147123945E-005
 DIRECTION dim            7  value    9.8832803498820117E-006
 DIRECTION dim            8  value    3.1294871305473953E-005
 DIRECTION dim            9  value    9.8808556887049075E-007
 DIRECTION dim           10  value    2.7350267467649363E-006
 DIRECTION dim           11  value    7.9033439342515629E-005
 DIRECTION dim           12  value    5.4020336412789073E-006
 DIRECTION dim           13  value   -5.8945463482832530E-006
 DIRECTION dim           14  value    7.8667846224955280E-006
 DIRECTION dim           15  value    5.9369682425071778E-006
 DIRECTION dim           16  value   -1.3373809225727282E-006
 DIRECTION dim           17  value    6.1050658817307823E-006
 DIRECTION dim           18  value    1.0467528893569456E-006
 DIRECTION dim           19  value   -1.4009194755098466E-005
 DIRECTION dim           20  value   -6.8868066156195129E-006
 DIRECTION dim           21  value   -3.4057386862588717E-006
 DIRECTION dim           22  value   -1.8778592918670401E-005
 DIRECTION dim           23  value    4.1687665347682485E-006
 DIRECTION dim           24  value    1.1036754314279415E-005
 DIRECTION dim           25  value   -4.1191014667229216E-005
 DIRECTION dim           26  value   -5.1638635740246616E-005
 DIRECTION dim           27  value    4.1017393770820166E-006
 DIRECTION dim           28  value   -7.0701276296776548E-006
 DIRECTION dim           29  value   -1.0698132837196631E-005
 DIRECTION dim           30  value   -3.7353072527401248E-006
 DIRECTION dim           31  value    3.6968076939269167E-005
 DIRECTION dim           32  value   -1.9796049582126990E-005
 DIRECTION dim           33  value    4.1362012137527780E-006
 DIRECTION dim           34  value    1.2031687796424755E-006
 DIRECTION dim           35  value   -4.2875047910885651E-006
 DIRECTION dim           36  value   -3.9403627218499978E-006
 DIRECTION dim           37  value   -4.0967672607118936E-006
 DIRECTION dim           38  value    3.1307812470674238E-006
 DIRECTION dim           39  value    5.9207364200394085E-006
 DIRECTION dim           40  value   -2.1756903872100189E-005
 DIRECTION dim           41  value    7.0404724354972319E-006
 DIRECTION dim           42  value    2.4922355345983085E-006
 DIRECTION dim           43  value   -1.6172203790648856E-005
 DIRECTION dim           44  value    8.9287377285013107E-007
 DIRECTION dim           45  value    1.5741094084770469E-005
 DIRECTION dim           46  value   -1.1175161477253949E-005
 DIRECTION dim           47  value    2.5171498337016448E-005
 DIRECTION dim           48  value    7.9638977030686646E-006

  **** Optimisation achieved ****

  Final energy =    -470.01427799 eV
  Final Gnorm  =       0.00021065

  Components of energy :

  Interatomic potentials     =          69.57873161 eV
  Monopole - monopole (real) =        -255.33144816 eV
  Monopole - monopole (recip)=        -284.26156143 eV
  Monopole - monopole (total)=        -539.59300960 eV
  Total lattice energy       =        -470.01427799 eV
  Total lattice energy       =          -45349.1930 kJ/(mole unit cells)

  Final fractional coordinates of atoms :

   No.  Atomic        x           y          z          Radius
        Label       (Frac)      (Frac)     (Frac)       (Angs)
     1  O     c     0.500000    0.500000    0.750000    0.000000
     2  O     c     0.506036    0.012719    0.762780    0.000000
     3  O     c     0.936583    0.721468    0.654847    0.000000
     4  O     c     0.942117    0.284335    0.927363    0.000000
     5  O     c     0.970164    0.807124    0.201550    0.000000
     6  O     c     0.526289    0.063649    0.099535    0.000000
     7  O     c     0.533837    0.552132    0.076927    0.000000
     8  O     c     0.478490    0.624038    0.407789    0.000000
     9  O     c     0.702056    0.020545    0.443935    0.000000
    10  Sr    c     0.151523    0.330238    0.226129    0.000000
    11  Sr    c     0.144177    0.772345    0.927934    0.000000
    12  Sr    c     0.076018    0.250875    0.625873    0.000000
    13  Ti    c     0.607915    0.763585    0.613517    0.000000
    14  Ti    c     0.601071    0.287215    0.922748    0.000000
    15  Ti    c     0.640262    0.819864    0.239329    0.000000

  Final Cartesian lattice vectors (Angstroms) :

        5.330053   -0.195464   -0.121667
       -0.195464    5.256066   -0.142239
       -0.243334   -0.284478    8.074926

  Final cell parameters and derivatives :

       a            5.335024 Angstrom     dE/de1(xx)     0.005863 eV/strain
       b            5.261622 Angstrom     dE/de2(yy)     0.003761 eV/strain
       c            8.083599 Angstrom     dE/de3(zz)     0.001383 eV/strain
       alpha       93.499565 Degrees      dE/de4(yz)     0.000390 eV/strain
       beta        92.955809 Degrees      dE/de5(xz)    -0.000330 eV/strain
       gamma       94.191890 Degrees      dE/de6(xy)     0.002011 eV/strain

  Primitive cell volume =           225.526627 Angs**3

  Density of cell =      4.053363 g/cm**3

  Non-primitive cell volume =           225.526627 Angs**3

  Final internal derivatives :

   No.  Atomic          a             b             c           Radius
        Label          (eV)          (eV)          (eV)        (eV/Angs)
      1 O     c       0.000000      0.000000      0.000000      0.000000
      2 O     c      -0.000344      0.000228      0.000295      0.000000
      3 O     c       0.003187      0.000220     -0.000332      0.000000
      4 O     c       0.002974     -0.000512     -0.000360      0.000000
      5 O     c       0.002096     -0.000729     -0.000439      0.000000
      6 O     c      -0.000006     -0.000293      0.000254      0.000000
      7 O     c      -0.000531      0.000162     -0.000340      0.000000
      8 O     c      -0.000920     -0.001448     -0.000006      0.000000
      9 O     c       0.000548      0.001224     -0.000224      0.000000
     10 Sr    c       0.000084      0.000349      0.000925      0.000000
     11 Sr    c      -0.000183      0.000243      0.000055      0.000000
     12 Sr    c      -0.000081      0.000142     -0.001183      0.000000
     13 Ti    c      -0.002072      0.000304     -0.000375      0.000000
     14 Ti    c      -0.002087      0.000491     -0.000109      0.000000
     15 Ti    c      -0.002171      0.000340      0.000858      0.000000
  Maximum abs         0.003187      0.001448      0.001183      0.000000

  Time to end of optimisation =       0.4567 seconds

 Exiting ------OPTIONS------

  Timing analysis for GULP :

  Task / Subroutine                                          Time (Seconds)
  Calculation of reciprocal space energy and derivatives          0.0441
  Calculation of real space energy and derivatives                0.3986
  Calculation and manipulation of Hessian matrix                  0.0002
  Calculation of matrix inversion                                 0.0007
  Global summation overhead                                       0.0002

  Job Finished at 13:26.17 21st February   2020