  Job Started  at 13:26.15 21st February   2020

  Number of CPUs =     1

  Total number of configurations input =      1

*  Input for Configuration =   1                                               *

  Formula = O9Sr3Ti3

  Number of irreducible atoms/shells =      15

  Total number atoms/shells =      15

  Dimensionality = 3               :  Bulk

  Cartesian lattice vectors (Angstroms) :

        4.000000    0.000000    0.000000
        0.000000    4.000000    0.000000
        0.000000    0.000000    8.000000

  Cell parameters (Angstroms/Degrees):

  a =       4.0000    alpha =  90.0000
  b =       4.0000    beta  =  90.0000
  c =       8.0000    gamma =  90.0000

  Initial cell volume =         128.000000 Angs**3

  Temperature of configuration =  0.000     K

  Pressure of configuration =         0.000 GPa

  Fractional coordinates of asymmetric unit :

   No.  Atomic       x           y          z         Charge      Occupancy
        Label      (Frac)      (Frac)     (Frac)        (e)         (Frac)
      1 O     c    0.000000    0.500000    0.250000    -2.00000    1.000000
      2 O     c    0.500000 *  0.500000 *  0.250000 *  -2.00000    1.000000
      3 O     c    0.000000 *  0.500000 *  0.500000 *  -2.00000    1.000000
      4 O     c    0.500000 *  0.000000 *  0.500000 *  -2.00000    1.000000
      5 O     c    0.500000 *  0.500000 *  0.750000 *  -2.00000    1.000000
      6 O     c    0.000000 *  0.000000 *  0.000000 *  -2.00000    1.000000
      7 O     c    0.000000 *  0.000000 *  0.500000 *  -2.00000    1.000000
      8 O     c    0.500000 *  0.000000 *  0.000000 *  -2.00000    1.000000
      9 O     c    0.000000 *  0.500000 *  0.750000 *  -2.00000    1.000000
     10 Sr    c    0.750000 *  0.250000 *  0.375000 *   2.00000    1.000000
     11 Sr    c    0.750000 *  0.750000 *  0.875000 *   2.00000    1.000000
     12 Sr    c    0.750000 *  0.750000 *  0.125000 *   2.00000    1.000000
     13 Ti    c    0.750000 *  0.250000 *  0.875000 *   4.00000    1.000000
     14 Ti    c    0.250000 *  0.250000 *  0.125000 *   4.00000    1.000000
     15 Ti    c    0.250000 *  0.750000 *  0.125000 *   4.00000    1.000000

*  General input information                                                   *

  Species output for all configurations :

  Species    Type    Atomic    Atomic    Charge       Radii (Angs)     Library
                     Number     Mass       (e)     Cova   Ionic  VDW   Symbol
    O        Core        8      16.00  -2.000000   0.730  0.000  1.360
    Sr       Core       38      87.62   2.000000   1.120  0.000  1.670
    Ti       Core       22      47.88   4.000000   1.470  0.000  2.190

  Lattice summation method               =    Ewald          (3-D)
                                         =    Parry          (2-D)
                                         =    Saunders et al (1-D)
  Accuracy factor for lattice sums       =   12.000

  Time limit =      15.00 seconds

  Maximum range for interatomic potentials =    100000.000000 Angstroms

  General interatomic potentials :

Atom  Types   Potential      Parameter       Value         Units   Cutoffs(Ang)
  1     2                                                            Min /  Max
O    c Sr   c Buckingham    Buckingham A     1952.3900    eV        0.000 10.000
                            Buckingham rho  0.33685000    Ang
                            Buckingham C     19.220000    eV*Ang^6
O    c Ti   c Buckingham    Buckingham A     4590.7279    eV        0.000 10.000
                            Buckingham rho  0.26100000    Ang
                            Buckingham C     0.0000000    eV*Ang^6
O    c O    c Buckingham    Buckingham A     1388.7700    eV        0.000 10.000
                            Buckingham rho  0.36262000    Ang
                            Buckingham C     175.00000    eV*Ang^6
 Calling ------OPTIONS------

*  Output for configuration   1                                                *

  Components of energy :

  Interatomic potentials     =         252.05488473 eV
  Monopole - monopole (real) =        -121.78183040 eV
  Monopole - monopole (recip)=        -176.23510212 eV
  Monopole - monopole (total)=        -298.01693251 eV
  Total lattice energy       =         -45.96204778 eV
  Total lattice energy       =           -4434.6350 kJ/(mole unit cells)

  Number of variables =       48

  Maximum number of calculations  =          1000
  Maximum Hessian update interval =            10
  Maximum step size               =   1.000000000
  Maximum parameter tolerance     =   0.000010000
  Maximum function  tolerance     =   0.000010000
  Maximum gradient  tolerance     =   0.001000000
  Maximum gradient  component     =   0.010000000

  Cell parameters to be optimised using strains

  Newton-Raphson optimiser to be used

  BFGS hessian update to be used

  Lower half triangular hessian to be used

  Start of bulk optimisation :

  ** Hessian calculated **
 ALPHA BEFORE:    1.0000000000000000
 XC BEFORE:   0.50000000000000000
  ** Opt : line minimisation
left   ...       0.00000000     -45.96204778
centre ...       0.25000000     -81.54551253
right  ...       0.50000000    -113.91353225

left   ...       0.00000000     -45.96204778
centre ...       0.25000000     -81.54551253
right  ...       0.50000000    -113.91353225
new    ...       1.50000000    -208.07750629

__s__    ...       1.00000000

[...]

 ALPHA AFTER:    3.0910922757114716
 XC AFTER:   0.56044012319571002
 SANITY CHECK:    3.0910922757114672
 DIRECTION dim            1  value    1.9552998682900433E-002
 DIRECTION dim            2  value   -6.4461003888180227E-002
 DIRECTION dim            3  value    2.8687792112863049E-002
 DIRECTION dim            4  value    1.0829731761612107E-002
 DIRECTION dim            5  value    5.8415527256474191E-002
 DIRECTION dim            6  value    1.7300832968416946E-002
 DIRECTION dim            7  value   -2.2989286551039906E-003
 DIRECTION dim            8  value   0.11158827619138145
 DIRECTION dim            9  value    3.2430917121605979E-002
 DIRECTION dim           10  value    4.0208424300584349E-002
 DIRECTION dim           11  value   -7.1848487322064808E-002
 DIRECTION dim           12  value    5.0527339266572789E-002
 DIRECTION dim           13  value   -8.6143195808027696E-004
 DIRECTION dim           14  value   -8.5771996748189739E-003
 DIRECTION dim           15  value    5.5046125025164178E-002
 DIRECTION dim           16  value    1.4971994476462736E-002
 DIRECTION dim           17  value   -2.1336731602671698E-002
 DIRECTION dim           18  value    2.1700030418515280E-002
 DIRECTION dim           19  value    8.7495188093565646E-004
 DIRECTION dim           20  value   -5.0268233348612088E-003
 DIRECTION dim           21  value    3.3004122960615813E-002
 DIRECTION dim           22  value    5.4048757060433918E-002
 DIRECTION dim           23  value   -4.5304869349397425E-002
 DIRECTION dim           24  value    5.6287494704706224E-002
 DIRECTION dim           25  value    9.8104928068628833E-002
 DIRECTION dim           26  value   -1.1169554315671980E-002
 DIRECTION dim           27  value    2.9287519696653875E-002
 DIRECTION dim           28  value    1.9786564148108064E-002
 DIRECTION dim           29  value   -9.1506007325338878E-003
 DIRECTION dim           30  value    2.2650221462053519E-002
 DIRECTION dim           31  value   -3.0789365959835585E-002
 DIRECTION dim           32  value    9.0461193713178897E-003
 DIRECTION dim           33  value    3.8830207152302711E-002
 DIRECTION dim           34  value    4.2248887119716388E-002
 DIRECTION dim           35  value   -6.5927677277980989E-002
 DIRECTION dim           36  value   -5.5447050302961931E-003
 DIRECTION dim           37  value    2.4211674613726392E-002
 DIRECTION dim           38  value   -3.2903478881890137E-002
 DIRECTION dim           39  value    6.2994780080737958E-002
 DIRECTION dim           40  value    5.6805132789370374E-003
 DIRECTION dim           41  value   -1.7809861823293489E-002
 DIRECTION dim           42  value    5.7712325064826174E-002
 DIRECTION dim           43  value    1.0531665577522883E-002
 DIRECTION dim           44  value    7.9203489896523496E-002
 DIRECTION dim           45  value    7.5779107430292231E-002
 DIRECTION dim           46  value   -3.0947920633496228E-002
 DIRECTION dim           47  value   -3.8069799770906378E-003
 DIRECTION dim           48  value   -1.8284804313918074E-002
  ** Hessian calculated **
 ALPHA BEFORE:    1.0000000000000000
 XC BEFORE:   0.56044012319571002
  ** Opt : line minimisation
left   ...       0.00000000    -247.86499677
centre ...       0.25000000    -254.51768533
right  ...       0.50000000    -260.72894940

[...]

 ALPHA AFTER:   0.14695101241734065
 XC AFTER:   0.46661561007844260
 SANITY CHECK:   0.14695101241734046
 DIRECTION dim            1  value   -1.6509199405908552E-002
 DIRECTION dim            2  value   -3.2323941080039890E-003
 DIRECTION dim            3  value   -1.7619221146068856E-002
 DIRECTION dim            4  value   -4.1546391914819222E-002
 DIRECTION dim            5  value   -2.7963832128416670E-003
 DIRECTION dim            6  value  -0.59400436497903975
 DIRECTION dim            7  value   -1.2093555860488756E-002
 DIRECTION dim            8  value   -1.5424246623784077E-002
 DIRECTION dim            9  value    9.3865443419112528E-005
 DIRECTION dim           10  value    2.3327334599739578E-003
 DIRECTION dim           11  value   -7.2688289209433049E-003
 DIRECTION dim           12  value   -5.8805220549213088E-003
 DIRECTION dim           13  value   -2.4392116215331643E-002
 DIRECTION dim           14  value   -3.7140243668387411E-002
 DIRECTION dim           15  value    3.0422612124722231E-002
 DIRECTION dim           16  value   -6.7352518355258739E-002
 DIRECTION dim           17  value   -2.9803244539630290E-003
 DIRECTION dim           18  value    6.0670715455472066E-003
 DIRECTION dim           19  value    2.6227081264113602E-002
 DIRECTION dim           20  value   -1.0678098279514401E-005
 DIRECTION dim           21  value    8.8221840128914694E-003
 DIRECTION dim           22  value    3.4527850663249017E-002
 DIRECTION dim           23  value   -2.4517456002482632E-002
 DIRECTION dim           24  value   -3.5081547899377903E-002
 DIRECTION dim           25  value   -6.6107825625187034E-003
 DIRECTION dim           26  value    7.1437934258673473E-003
 DIRECTION dim           27  value   -1.1345165128906239E-002
 DIRECTION dim           28  value   -2.3255454891012297E-002
 DIRECTION dim           29  value   -5.4060275739654627E-003
 DIRECTION dim           30  value    1.8708806015366661E-002
 DIRECTION dim           31  value    1.6944606853518087E-002
 DIRECTION dim           32  value    2.9550184492059720E-002
 DIRECTION dim           33  value   -5.9900092533053699E-003
 DIRECTION dim           34  value   -6.1547365298881835E-004
 DIRECTION dim           35  value    1.5795073111937560E-002
 DIRECTION dim           36  value    8.0326633504260950E-003
 DIRECTION dim           37  value   -1.2709313218117501E-002
 DIRECTION dim           38  value   -2.3839646848827497E-002
 DIRECTION dim           39  value   -5.2814061934356614E-003
 DIRECTION dim           40  value   -1.6320554180390530E-002
 DIRECTION dim           41  value    2.1073273148141832E-002
 DIRECTION dim           42  value    1.2926379040414677E-002
 DIRECTION dim           43  value    3.3485576570019045E-003
 DIRECTION dim           44  value   0.11772622937349633
 DIRECTION dim           45  value    1.5781695953356070E-002
 DIRECTION dim           46  value   -3.7162135049065423E-003
 DIRECTION dim           47  value   -1.9746834611812827E-002
 DIRECTION dim           48  value   -2.6582254429781065E-002
 ALPHA BEFORE:   0.11563551789912753
 XC BEFORE:   0.46661561007844260
  ** Opt : line minimisation
left   ...       0.00000000    -426.80907694
centre ...       0.02890888    -428.64951630
right  ...       0.05781776    -429.12070788

[...]

 ALPHA AFTER:    1.4794235000597032E-005
 XC AFTER:   0.46323277848898664
 SANITY CHECK:    1.4794234931723021E-005
 DIRECTION dim            1  value    3.2666602775337016E-004
 DIRECTION dim            2  value    2.9633911796463931E-004
 DIRECTION dim            3  value   -1.5399368972279643E-004
 DIRECTION dim            4  value   -4.0782890628683301E-004
 DIRECTION dim            5  value   -2.6243136318873661E-004
 DIRECTION dim            6  value   -8.1962585449321304E-005
 DIRECTION dim            7  value   -1.1794099008842951E-005
 DIRECTION dim            8  value    2.9859536096189067E-006
 DIRECTION dim            9  value    1.5582213084783215E-004
 DIRECTION dim           10  value    4.1523302438929486E-005
 DIRECTION dim           11  value   -2.0517971810033150E-004
 DIRECTION dim           12  value    1.5693104074712951E-004
 DIRECTION dim           13  value   -1.8559697066855606E-006
 DIRECTION dim           14  value   -8.6849641638811874E-005
 DIRECTION dim           15  value   -1.5468058464449772E-004
 DIRECTION dim           16  value    4.1909365313954131E-004
 DIRECTION dim           17  value    5.6593467166015754E-004
 DIRECTION dim           18  value   -1.0720533443743773E-004
 DIRECTION dim           19  value    3.3169561098082427E-004
 DIRECTION dim           20  value    2.6452894338416445E-004
 DIRECTION dim           21  value   -5.6975003995531217E-005
 DIRECTION dim           22  value    5.3130315884328299E-005
 DIRECTION dim           23  value    1.5728777739748117E-004
 DIRECTION dim           24  value   -1.9239596974983552E-004
 DIRECTION dim           25  value    8.0971914921402067E-004
 DIRECTION dim           26  value    1.4684716412448418E-004
 DIRECTION dim           27  value    3.5557972242299505E-005
 DIRECTION dim           28  value   -6.9023523143351654E-004
 DIRECTION dim           29  value   -9.9829019094015888E-005
 DIRECTION dim           30  value   -2.6511719363371154E-004
 DIRECTION dim           31  value   -4.6036599373018122E-004
 DIRECTION dim           32  value   -6.3661522475179052E-004
 DIRECTION dim           33  value    1.3464763696780475E-004
 DIRECTION dim           34  value    1.3103741311234809E-007
 DIRECTION dim           35  value   -2.4224249268581329E-005
 DIRECTION dim           36  value    4.2980742337688395E-006
 DIRECTION dim           37  value    2.3506336249044042E-004
 DIRECTION dim           38  value   -1.1132146181793352E-004
 DIRECTION dim           39  value    1.6283163305299059E-004
 DIRECTION dim           40  value   -2.6617436656673540E-004
 DIRECTION dim           41  value   -1.9215806243925583E-004
 DIRECTION dim           42  value    8.9952759011485562E-005
 DIRECTION dim           43  value    1.5586598924321188E-004
 DIRECTION dim           44  value    1.1648250026560396E-003
 DIRECTION dim           45  value    2.1609921089883719E-004
 DIRECTION dim           46  value   -2.0568286339018985E-003
 DIRECTION dim           47  value   -2.1614733941210692E-003
 DIRECTION dim           48  value    2.0375097057271185E-003
 ALPHA BEFORE:    1.4797682459975377E-005
 XC BEFORE:   0.46323277848898664
  ** Opt : line minimisation
left   ...       0.00000000    -470.20120639
centre ...       0.00000370    -470.19963142
right  ...      -0.00000370    -470.20120637

[...]

 ALPHA AFTER:   -5.0317573363064362E-003
 XC AFTER:   0.46323277848898664
 SANITY CHECK:    0.0000000000000000
 DIRECTION dim            1  value    3.5375826182253373E-004
 DIRECTION dim            2  value    3.2625569775249176E-004
 DIRECTION dim            3  value   -1.6888851404303520E-004
 DIRECTION dim            4  value   -4.4421924969180449E-004
 DIRECTION dim            5  value   -2.9625073089942873E-004
 DIRECTION dim            6  value   -9.0140405563601380E-005
 DIRECTION dim            7  value   -1.9076085289454984E-005
 DIRECTION dim            8  value   -2.5940618554347486E-006
 DIRECTION dim            9  value    1.7010823465302979E-004
 DIRECTION dim           10  value    4.9747856339020666E-005
 DIRECTION dim           11  value   -2.2636572781434150E-004
 DIRECTION dim           12  value    1.7278455844767541E-004
 DIRECTION dim           13  value    5.8062192468705128E-006
 DIRECTION dim           14  value   -7.4672753809939185E-005
 DIRECTION dim           15  value   -1.6886919235246966E-004
 DIRECTION dim           16  value    4.5446482139576116E-004
 DIRECTION dim           17  value    6.1783333126643695E-004
 DIRECTION dim           18  value   -1.1757952094563379E-004
 DIRECTION dim           19  value    3.6473008947496440E-004
 DIRECTION dim           20  value    2.9534265471561569E-004
 DIRECTION dim           21  value   -6.7785844163271460E-005
 DIRECTION dim           22  value    6.4538330783446096E-005
 DIRECTION dim           23  value    1.7506711715314466E-004
 DIRECTION dim           24  value   -2.0231330943939257E-004
 DIRECTION dim           25  value    8.8305631251563285E-004
 DIRECTION dim           26  value    1.7695599020235310E-004
 DIRECTION dim           27  value    4.4435414477371502E-005
 DIRECTION dim           28  value   -7.3063047545536552E-004
 DIRECTION dim           29  value   -1.0400614384164062E-004
 DIRECTION dim           30  value   -2.8934320213352770E-004
 DIRECTION dim           31  value   -5.1171304958388020E-004
 DIRECTION dim           32  value   -6.9536320588852829E-004
 DIRECTION dim           33  value    1.3736715976150681E-004
 DIRECTION dim           34  value   -1.7075234322361310E-006
 DIRECTION dim           35  value   -2.5616272884363750E-005
 DIRECTION dim           36  value    2.1295586482719910E-006
 DIRECTION dim           37  value    2.5124300870832741E-004
 DIRECTION dim           38  value   -1.2466618166356820E-004
 DIRECTION dim           39  value    1.8307401856186399E-004
 DIRECTION dim           40  value   -2.9119575760784832E-004
 DIRECTION dim           41  value   -2.1660831598692168E-004
 DIRECTION dim           42  value    1.0204965546641300E-004
 DIRECTION dim           43  value    1.6374059658245783E-004
 DIRECTION dim           44  value    1.2151304274302219E-003
 DIRECTION dim           45  value    2.3889449792625900E-004
 DIRECTION dim           46  value   -2.1923535984110982E-003
 DIRECTION dim           47  value   -2.2910316639012497E-003
 DIRECTION dim           48  value    2.1523446002459238E-003
  ** Hessian calculated **
 ALPHA BEFORE:    1.0000000000000000
 XC BEFORE:   0.46323277848898664
  ** Opt : line minimisation
left   ...       0.00000000    -470.20120639
centre ...       0.25000000    -470.20059873
right  ...      -0.25000000    -470.19970881

[...]

left   ...      -0.01006874    -470.20115638
centre ...       0.00000000    -470.20120639
right  ...       0.00016188    -470.19963220
new    ...      -0.00503176    -470.20118150

__s__    ...      -0.00519364

 ALPHA AFTER:   -5.0317573363064362E-003
 XC AFTER:   0.46323277848898664
 SANITY CHECK:    0.0000000000000000
 DIRECTION dim            1  value    3.5375826182253373E-004
 DIRECTION dim            2  value    3.2625569775249176E-004
 DIRECTION dim            3  value   -1.6888851404303520E-004
 DIRECTION dim            4  value   -4.4421924969180449E-004
 DIRECTION dim            5  value   -2.9625073089942873E-004
 DIRECTION dim            6  value   -9.0140405563601380E-005
 DIRECTION dim            7  value   -1.9076085289454984E-005
 DIRECTION dim            8  value   -2.5940618554347486E-006
 DIRECTION dim            9  value    1.7010823465302979E-004
 DIRECTION dim           10  value    4.9747856339020666E-005
 DIRECTION dim           11  value   -2.2636572781434150E-004
 DIRECTION dim           12  value    1.7278455844767541E-004
 DIRECTION dim           13  value    5.8062192468705128E-006
 DIRECTION dim           14  value   -7.4672753809939185E-005
 DIRECTION dim           15  value   -1.6886919235246966E-004
 DIRECTION dim           16  value    4.5446482139576116E-004
 DIRECTION dim           17  value    6.1783333126643695E-004
 DIRECTION dim           18  value   -1.1757952094563379E-004
 DIRECTION dim           19  value    3.6473008947496440E-004
 DIRECTION dim           20  value    2.9534265471561569E-004
 DIRECTION dim           21  value   -6.7785844163271460E-005
 DIRECTION dim           22  value    6.4538330783446096E-005
 DIRECTION dim           23  value    1.7506711715314466E-004
 DIRECTION dim           24  value   -2.0231330943939257E-004
 DIRECTION dim           25  value    8.8305631251563285E-004
 DIRECTION dim           26  value    1.7695599020235310E-004
 DIRECTION dim           27  value    4.4435414477371502E-005
 DIRECTION dim           28  value   -7.3063047545536552E-004
 DIRECTION dim           29  value   -1.0400614384164062E-004
 DIRECTION dim           30  value   -2.8934320213352770E-004
 DIRECTION dim           31  value   -5.1171304958388020E-004
 DIRECTION dim           32  value   -6.9536320588852829E-004
 DIRECTION dim           33  value    1.3736715976150681E-004
 DIRECTION dim           34  value   -1.7075234322361310E-006
 DIRECTION dim           35  value   -2.5616272884363750E-005
 DIRECTION dim           36  value    2.1295586482719910E-006
 DIRECTION dim           37  value    2.5124300870832741E-004
 DIRECTION dim           38  value   -1.2466618166356820E-004
 DIRECTION dim           39  value    1.8307401856186399E-004
 DIRECTION dim           40  value   -2.9119575760784832E-004
 DIRECTION dim           41  value   -2.1660831598692168E-004
 DIRECTION dim           42  value    1.0204965546641300E-004
 DIRECTION dim           43  value    1.6374059658245783E-004
 DIRECTION dim           44  value    1.2151304274302219E-003
 DIRECTION dim           45  value    2.3889449792625900E-004
 DIRECTION dim           46  value   -2.1923535984110982E-003
 DIRECTION dim           47  value   -2.2910316639012497E-003
 DIRECTION dim           48  value    2.1523446002459238E-003

  **** Conditions for a minimum have not been satisfied. However ****
  **** no lower point can be found - treat results with caution  ****
  **** unless gradient norm is small (less than 0.1)             ****

  Final energy =    -470.20120639 eV
  Final Gnorm  =       0.04854441

  Components of energy :

  Interatomic potentials     =          71.26263828 eV
  Monopole - monopole (real) =        -261.24666525 eV
  Monopole - monopole (recip)=        -280.21717942 eV
  Monopole - monopole (total)=        -541.46384467 eV
  Total lattice energy       =        -470.20120639 eV
  Total lattice energy       =          -45367.2287 kJ/(mole unit cells)

  Final fractional coordinates of atoms :

   No.  Atomic        x           y          z          Radius
        Label       (Frac)      (Frac)     (Frac)       (Angs)
     1  O     c     0.000000    0.500000    0.250000    0.000000
     2  O     c     0.463233    0.145931    0.317924    0.000000
     3  O     c     0.429150    0.659386    0.472812    0.000000
     4  O     c     0.703252    0.460095    0.875409    0.000000
     5  O     c     0.321917    0.068667    0.833383    0.000000
     6  O     c     0.786011    0.916222    0.507335    0.000000
     7  O     c     0.166391    0.254362    0.594350    0.000000
     8  O     c     0.387076    0.671848    0.254196    0.000000
     9  O     c     0.043616    0.690601    0.895811    0.000000
    10  Sr    c     0.566568    0.499718    0.652619    0.000000
    11  Sr    c     0.160509    0.959750    0.107144    0.000000
    12  Sr    c     0.580871    0.195038    0.964525    0.000000
    13  Ti    c     0.083036    0.345578    0.792539    0.000000
    14  Ti    c     0.540062    0.869034    0.389937    0.000000
    15  Ti    c     0.212647    0.566047    0.373447    0.000000

  Final Cartesian lattice vectors (Angstroms) :

        5.298374    1.664905    0.734491
        1.664905    5.499241   -1.167807
        1.468983   -2.335613    9.928202

  Final cell parameters and derivatives :

       a            5.602156 Angstrom     dE/de1(xx)    -0.105931 eV/strain
       b            5.863219 Angstrom     dE/de2(yy)    -0.856825 eV/strain
       c           10.304474 Angstrom     dE/de3(zz)    -0.143800 eV/strain
       alpha      111.346741 Degrees      dE/de4(yz)     0.343278 eV/strain
       beta        78.826099 Degrees      dE/de5(xz)     0.360256 eV/strain
       gamma       58.588093 Degrees      dE/de6(xy)    -0.430819 eV/strain

  Primitive cell volume =           235.661110 Angs**3

  Density of cell =      3.879050 g/cm**3

  Non-primitive cell volume =           235.661110 Angs**3

  Final internal derivatives :

   No.  Atomic          a             b             c           Radius
        Label          (eV)          (eV)          (eV)        (eV/Angs)
      1 O     c       0.000000      0.000000      0.000000      0.000000
      2 O     c      -0.179577     -0.459085      0.501625      0.000000
      3 O     c       0.381421      0.277361      0.335942      0.000000
      4 O     c       0.028699      0.001953     -0.297855      0.000000
      5 O     c      -0.028779      0.225080     -0.614106      0.000000
      6 O     c      -0.004557      0.038179      0.346559      0.000000
      7 O     c      -0.256855     -0.434102      0.581950      0.000000
      8 O     c      -0.249514     -0.268100      0.250586      0.000000
      9 O     c      -0.053837     -0.239503      0.272489      0.000000
     10 Sr    c      -0.235727     -0.064660     -0.063023      0.000000
     11 Sr    c       0.135710      0.031438      0.192432      0.000000
     12 Sr    c       0.182165      0.323630     -0.161676      0.000000
     13 Ti    c       0.003594      0.059394     -0.016731      0.000000
     14 Ti    c      -0.320730      0.197643     -0.841205      0.000000
     15 Ti    c       0.534924      0.407921     -0.495916      0.000000
  Maximum abs         0.534924      0.459085      0.841205      0.000000

  Time to end of optimisation =       1.2336 seconds

 Exiting ------OPTIONS------

  Timing analysis for GULP :

  Task / Subroutine                                          Time (Seconds)
  Calculation of reciprocal space energy and derivatives          0.0795
  Calculation of real space energy and derivatives                1.1331
  Calculation and manipulation of Hessian matrix                  0.0003
  Calculation of matrix inversion                                 0.0011
  Global summation overhead                                       0.0004

  Job Finished at 13:26.16 21st February   2020