  Job Started  at 11:50.21  4th February   2020

  Number of CPUs =     1

  Total number of configurations input =      1

*  Input for Configuration =   1                                               *

  Formula = O9Sr3Ti3

  Number of irreducible atoms/shells =      15

  Total number atoms/shells =      15

  Dimensionality = 3               :  Bulk

  Cartesian lattice vectors (Angstroms) :

        4.000000    0.000000    0.000000
        0.000000    4.000000    0.000000
        0.000000    0.000000    8.000000

  Cell parameters (Angstroms/Degrees):

  a =       4.0000    alpha =  90.0000
  b =       4.0000    beta  =  90.0000
  c =       8.0000    gamma =  90.0000

  Initial cell volume =         128.000000 Angs**3

  Temperature of configuration =  0.000     K

  Pressure of configuration =         0.000 GPa

  Fractional coordinates of asymmetric unit :

   No.  Atomic       x           y          z         Charge      Occupancy
        Label      (Frac)      (Frac)     (Frac)        (e)         (Frac)
      1 O     c    0.000000    0.500000    0.250000    -2.00000    1.000000
      2 O     c    0.500000 *  0.500000 *  0.250000 *  -2.00000    1.000000
      3 O     c    0.000000 *  0.500000 *  0.500000 *  -2.00000    1.000000
      4 O     c    0.500000 *  0.000000 *  0.500000 *  -2.00000    1.000000
      5 O     c    0.500000 *  0.500000 *  0.750000 *  -2.00000    1.000000
      6 O     c    0.000000 *  0.000000 *  0.000000 *  -2.00000    1.000000
      7 O     c    0.000000 *  0.000000 *  0.500000 *  -2.00000    1.000000
      8 O     c    0.500000 *  0.000000 *  0.000000 *  -2.00000    1.000000
      9 O     c    0.000000 *  0.500000 *  0.750000 *  -2.00000    1.000000
     10 Sr    c    0.750000 *  0.250000 *  0.375000 *   2.00000    1.000000
     11 Sr    c    0.750000 *  0.750000 *  0.875000 *   2.00000    1.000000
     12 Sr    c    0.750000 *  0.750000 *  0.125000 *   2.00000    1.000000
     13 Ti    c    0.750000 *  0.250000 *  0.875000 *   4.00000    1.000000
     14 Ti    c    0.250000 *  0.250000 *  0.125000 *   4.00000    1.000000
     15 Ti    c    0.250000 *  0.750000 *  0.125000 *   4.00000    1.000000

*  General input information                                                   *

  Species output for all configurations :

  Species    Type    Atomic    Atomic    Charge       Radii (Angs)     Library
                     Number     Mass       (e)     Cova   Ionic  VDW   Symbol
    O        Core        8      16.00  -2.000000   0.730  0.000  1.360
    Sr       Core       38      87.62   2.000000   1.120  0.000  1.670
    Ti       Core       22      47.88   4.000000   1.470  0.000  2.190

  Lattice summation method               =    Ewald          (3-D)
                                         =    Parry          (2-D)
                                         =    Saunders et al (1-D)
  Accuracy factor for lattice sums       =   12.000

  Time limit =      15.00 seconds

  Maximum range for interatomic potentials =    100000.000000 Angstroms

  General interatomic potentials :

Atom  Types   Potential      Parameter       Value         Units   Cutoffs(Ang)
  1     2                                                            Min /  Max
O    c Sr   c Buckingham    Buckingham A     1952.3900    eV        0.000 10.000
                            Buckingham rho  0.33685000    Ang
                            Buckingham C     19.220000    eV*Ang^6
O    c Ti   c Buckingham    Buckingham A     4590.7279    eV        0.000 10.000
                            Buckingham rho  0.26100000    Ang
                            Buckingham C     0.0000000    eV*Ang^6
O    c O    c Buckingham    Buckingham A     1388.7700    eV        0.000 10.000
                            Buckingham rho  0.36262000    Ang
                            Buckingham C     175.00000    eV*Ang^6
 Calling ------OPTIONS------

*  Output for configuration   1                                                *

  Components of energy :

  Interatomic potentials     =         252.05488473 eV
  Monopole - monopole (real) =        -121.78183040 eV
  Monopole - monopole (recip)=        -176.23510212 eV
  Monopole - monopole (total)=        -298.01693251 eV
  Total lattice energy       =         -45.96204778 eV
  Total lattice energy       =           -4434.6350 kJ/(mole unit cells)

  Number of variables =       48

  Maximum number of calculations  =          1000
  Maximum Hessian update interval =            10
  Maximum step size               =   1.000000000
  Maximum parameter tolerance     =   0.000010000
  Maximum function  tolerance     =   0.000010000
  Maximum gradient  tolerance     =   0.001000000
  Maximum gradient  component     =   0.010000000

  Cell parameters to be optimised using strains

  Newton-Raphson optimiser to be used

  BFGS hessian update to be used

  Lower half triangular hessian to be used

  Start of bulk optimisation :

  ** Hessian calculated **
 Line minimisation2
 ALPHA BEFORE:    1.0000000000000000
  ** Opt : line minimisation
left   ...       0.00000000     -45.96204778
centre ...       0.25000000     -81.54551253
right  ...       0.50000000    -113.91353225

left   ...       0.00000000     -45.96204778
centre ...       0.25000000     -81.54551253
right  ...       0.50000000    -113.91353225
new    ...       1.50000000    -208.07750629

__s__    ...       1.00000000

[...]

 ALPHA AFTER:    3.0910922757114716
  ** Hessian calculated **
 Line minimisation2
 ALPHA BEFORE:    1.0000000000000000
  ** Opt : line minimisation
left   ...       0.00000000    -247.86499677
centre ...       0.25000000    -254.51768533
right  ...       0.50000000    -260.72894940

[...]

 ALPHA AFTER:   0.14695101241734065
 Line minimisation2
 ALPHA BEFORE:   0.11563551789912753
  ** Opt : line minimisation
left   ...       0.00000000    -426.80907694
centre ...       0.02890888    -428.64951630
right  ...       0.05781776    -429.12070788

[...]

 ALPHA AFTER:    1.4794235000597032E-005
 Line minimisation2
 ALPHA BEFORE:    1.4797682459975377E-005
  ** Opt : line minimisation
left   ...       0.00000000    -470.20120639
centre ...       0.00000370    -470.19963142
right  ...      -0.00000370    -470.20120637

[...]

 ALPHA AFTER:   -5.0317573363064362E-003
  ** Hessian calculated **
 Line minimisation2
 ALPHA BEFORE:    1.0000000000000000
  ** Opt : line minimisation
left   ...       0.00000000    -470.20120639
centre ...       0.25000000    -470.20059873
right  ...      -0.25000000    -470.19970881

[...]

left   ...      -0.01006874    -470.20115638
centre ...       0.00000000    -470.20120639
right  ...       0.00016188    -470.19963220
new    ...      -0.00503176    -470.20118150

__s__    ...      -0.00519364

 ALPHA AFTER:   -5.0317573363064362E-003

  **** Conditions for a minimum have not been satisfied. However ****
  **** no lower point can be found - treat results with caution  ****
  **** unless gradient norm is small (less than 0.1)             ****

  Final energy =    -470.20120639 eV
  Final Gnorm  =       0.04854441

  Components of energy :

  Interatomic potentials     =          71.26263828 eV
  Monopole - monopole (real) =        -261.24666525 eV
  Monopole - monopole (recip)=        -280.21717942 eV
  Monopole - monopole (total)=        -541.46384467 eV
  Total lattice energy       =        -470.20120639 eV
  Total lattice energy       =          -45367.2287 kJ/(mole unit cells)

  Final fractional coordinates of atoms :

   No.  Atomic        x           y          z          Radius
        Label       (Frac)      (Frac)     (Frac)       (Angs)
     1  O     c     0.000000    0.500000    0.250000    0.000000
     2  O     c     0.463233    0.145931    0.317924    0.000000
     3  O     c     0.429150    0.659386    0.472812    0.000000
     4  O     c     0.703252    0.460095    0.875409    0.000000
     5  O     c     0.321917    0.068667    0.833383    0.000000
     6  O     c     0.786011    0.916222    0.507335    0.000000
     7  O     c     0.166391    0.254362    0.594350    0.000000
     8  O     c     0.387076    0.671848    0.254196    0.000000
     9  O     c     0.043616    0.690601    0.895811    0.000000
    10  Sr    c     0.566568    0.499718    0.652619    0.000000
    11  Sr    c     0.160509    0.959750    0.107144    0.000000
    12  Sr    c     0.580871    0.195038    0.964525    0.000000
    13  Ti    c     0.083036    0.345578    0.792539    0.000000
    14  Ti    c     0.540062    0.869034    0.389937    0.000000
    15  Ti    c     0.212647    0.566047    0.373447    0.000000

  Final Cartesian lattice vectors (Angstroms) :

        5.298374    1.664905    0.734491
        1.664905    5.499241   -1.167807
        1.468983   -2.335613    9.928202

  Final cell parameters and derivatives :

       a            5.602156 Angstrom     dE/de1(xx)    -0.105931 eV/strain
       b            5.863219 Angstrom     dE/de2(yy)    -0.856825 eV/strain
       c           10.304474 Angstrom     dE/de3(zz)    -0.143800 eV/strain
       alpha      111.346741 Degrees      dE/de4(yz)     0.343278 eV/strain
       beta        78.826099 Degrees      dE/de5(xz)     0.360256 eV/strain
       gamma       58.588093 Degrees      dE/de6(xy)    -0.430819 eV/strain

  Primitive cell volume =           235.661110 Angs**3

  Density of cell =      3.879050 g/cm**3

  Non-primitive cell volume =           235.661110 Angs**3

  Final internal derivatives :

   No.  Atomic          a             b             c           Radius
        Label          (eV)          (eV)          (eV)        (eV/Angs)
      1 O     c       0.000000      0.000000      0.000000      0.000000
      2 O     c      -0.179577     -0.459085      0.501625      0.000000
      3 O     c       0.381421      0.277361      0.335942      0.000000
      4 O     c       0.028699      0.001953     -0.297855      0.000000
      5 O     c      -0.028779      0.225080     -0.614106      0.000000
      6 O     c      -0.004557      0.038179      0.346559      0.000000
      7 O     c      -0.256855     -0.434102      0.581950      0.000000
      8 O     c      -0.249514     -0.268100      0.250586      0.000000
      9 O     c      -0.053837     -0.239503      0.272489      0.000000
     10 Sr    c      -0.235727     -0.064660     -0.063023      0.000000
     11 Sr    c       0.135710      0.031438      0.192432      0.000000
     12 Sr    c       0.182165      0.323630     -0.161676      0.000000
     13 Ti    c       0.003594      0.059394     -0.016731      0.000000
     14 Ti    c      -0.320730      0.197643     -0.841205      0.000000
     15 Ti    c       0.534924      0.407921     -0.495916      0.000000
  Maximum abs         0.534924      0.459085      0.841205      0.000000

  Time to end of optimisation =       1.1375 seconds

 Exiting ------OPTIONS------

  Timing analysis for GULP :

  Task / Subroutine                                          Time (Seconds)
  Calculation of reciprocal space energy and derivatives          0.0772
  Calculation of real space energy and derivatives                1.0449
  Calculation and manipulation of Hessian matrix                  0.0002
  Calculation of matrix inversion                                 0.0010
  Global summation overhead                                       0.0004

  Job Finished at 11:50.22  4th February   2020