  Job Started  at 11:51.24  4th February   2020

  Number of CPUs =     1

  Total number of configurations input =      1

*  Input for Configuration =   1                                               *

  Formula = Sr3Ti3O9

  Number of irreducible atoms/shells =      15

  Total number atoms/shells =      15

  Dimensionality = 3               :  Bulk

  Cartesian lattice vectors (Angstroms) :

       12.000000    0.000000    0.000000
        0.000000    4.000000    0.000000
        0.000000    0.000000    4.000000

  Cell parameters (Angstroms/Degrees):

  a =      12.0000    alpha =  90.0000
  b =       4.0000    beta  =  90.0000
  c =       4.0000    gamma =  90.0000

  Initial cell volume =         192.000000 Angs**3

  Temperature of configuration =  0.000     K

  Pressure of configuration =         0.000 GPa

  Fractional coordinates of asymmetric unit :

   No.  Atomic       x           y          z         Charge      Occupancy
        Label      (Frac)      (Frac)     (Frac)        (e)         (Frac)
      1 Sr    c    0.999960    0.999870    0.000550     2.00000    1.000000
      2 Ti    c    0.166670 *  0.500120 *  0.500000 *   4.00000    1.000000
      3 O     c    0.999860 *  0.499900 *  0.500580 *  -2.00000    1.000000
      4 O     c    0.166680 *  0.000170 *  0.499980 *  -2.00000    1.000000
      5 O     c    0.166710 *  0.500200 *  0.999660 *  -2.00000    1.000000
      6 Sr    c    0.333470 *  0.000350 *  0.000010 *   2.00000    1.000000
      7 Ti    c    0.500270 *  0.499340 *  0.499380 *   4.00000    1.000000
      8 O     c    0.333310 *  0.499790 *  0.499620 *  -2.00000    1.000000
      9 O     c    0.499980 *  0.999440 *  0.500200 *  -2.00000    1.000000
     10 O     c    0.500030 *  0.500400 *  0.000150 *  -2.00000    1.000000
     11 Sr    c    0.666540 *  0.999940 *  0.999970 *   2.00000    1.000000
     12 Ti    c    0.833350 *  0.499710 *  0.499670 *   4.00000    1.000000
     13 O     c    0.666530 *  0.499700 *  0.500090 *  -2.00000    1.000000
     14 O     c    0.833150 *  0.000100 *  0.500050 *  -2.00000    1.000000
     15 O     c    0.833380 *  0.500160 *  0.000120 *  -2.00000    1.000000

*  General input information                                                   *

  Species output for all configurations :

  Species    Type    Atomic    Atomic    Charge       Radii (Angs)     Library
                     Number     Mass       (e)     Cova   Ionic  VDW   Symbol
    Sr       Core       38      87.62   2.000000   1.120  0.000  1.670
    Ti       Core       22      47.88   4.000000   1.470  0.000  2.190
    O        Core        8      16.00  -2.000000   0.730  0.000  1.360

  Lattice summation method               =    Ewald          (3-D)
                                         =    Parry          (2-D)
                                         =    Saunders et al (1-D)
  Accuracy factor for lattice sums       =   12.000

  Time limit = Infinity

  Maximum range for interatomic potentials =    100000.000000 Angstroms

  General interatomic potentials :

Atom  Types   Potential      Parameter       Value         Units   Cutoffs(Ang)
  1     2                                                            Min /  Max
O    c Sr   c Buckingham    Buckingham A     1952.3900    eV        0.000 10.000
                            Buckingham rho  0.33685000    Ang
                            Buckingham C     19.220000    eV*Ang^6
O    c Ti   c Buckingham    Buckingham A     4590.7279    eV        0.000 10.000
                            Buckingham rho  0.26100000    Ang
                            Buckingham C     0.0000000    eV*Ang^6
O    c O    c Buckingham    Buckingham A     1388.7700    eV        0.000 10.000
                            Buckingham rho  0.36262000    Ang
                            Buckingham C     175.00000    eV*Ang^6
 Calling ------OPTIONS------

*  Output for configuration   1                                                *

  Components of energy :

  Interatomic potentials     =          59.32156790 eV
  Monopole - monopole (real) =        -234.57439053 eV
  Monopole - monopole (recip)=        -300.12335562 eV
  Monopole - monopole (total)=        -534.69774615 eV
  Total lattice energy       =        -475.37617825 eV
  Total lattice energy       =          -45866.5344 kJ/(mole unit cells)

  Number of variables =       48

  Maximum number of calculations  =          1000
  Maximum Hessian update interval =            10
  Maximum step size               =   1.000000000
  Maximum parameter tolerance     =   0.000010000
  Maximum function  tolerance     =   0.000010000
  Maximum gradient  tolerance     =   0.001000000
  Maximum gradient  component     =   0.010000000

  Cell parameters to be optimised using strains

  Conjugate gradient optimiser to be used

  Lower half triangular hessian to be used

  Start of bulk optimisation :

 Line minimisation2
 ALPHA BEFORE:    1.0000000000000000
  ** Opt : line minimisation
left   ...       0.00000000    -475.37617825
centre ...       0.25000000    -475.46049989
right  ...       0.50000000    -475.51142990

left   ...       0.00000000    -475.37617825
centre ...       0.25000000    -475.46049989
right  ...       0.50000000    -475.51142990
new    ...       0.75630828    -475.52804166

__s__    ...       0.25630828

 ALPHA AFTER:   0.75630828475232981
 Perform trimming
 Line minimisation2
 ALPHA BEFORE:   0.75630828475232981
  ** Opt : line minimisation
left   ...       0.00000000    -475.52804166
centre ...       0.18907707    -475.56350110
right  ...       0.37815414    -475.47732340

[...]

 ALPHA AFTER:   0.15017166294178641
 Line minimisation2
 ALPHA BEFORE:   0.15017166294178641
  ** Opt : line minimisation
left   ...       0.00000000    -475.56605253
centre ...       0.03754292    -475.56647153
right  ...       0.07508583    -475.56678951

[...]

 ALPHA AFTER:   0.33115179614073664
 Perform trimming
 Line minimisation2
 ALPHA BEFORE:   0.33115179614073664
  ** Opt : line minimisation
left   ...       0.00000000    -475.56731129
centre ...       0.08278795    -475.56731144
right  ...       0.16557590    -475.56731150

[...]

 ALPHA AFTER:   0.11020401493997642
 Line minimisation2
 ALPHA BEFORE:   0.11020401493997642
  ** Opt : line minimisation
left   ...       0.00000000    -475.56731207
centre ...       0.02755100    -475.56731210
right  ...       0.05510201    -475.56731213

left   ...       0.00000000    -475.56731207
centre ...       0.02755100    -475.56731210
right  ...       0.05510201    -475.56731213
new    ...       0.14136455    -475.56731216

__s__    ...       0.08626254

 ALPHA AFTER:   0.14136455119094357

  **** Optimisation achieved ****

  Final energy =    -475.56731216 eV
  Final Gnorm  =       0.00041271

  Components of energy :

  Interatomic potentials     =          65.00883304 eV
  Monopole - monopole (real) =        -237.15309216 eV
  Monopole - monopole (recip)=        -303.42305304 eV
  Monopole - monopole (total)=        -540.57614520 eV
  Total lattice energy       =        -475.56731216 eV
  Total lattice energy       =          -45884.9759 kJ/(mole unit cells)

  Final fractional coordinates of atoms :

   No.  Atomic        x           y          z          Radius
        Label       (Frac)      (Frac)     (Frac)       (Angs)
     1  Sr    c     0.999960    0.999870    0.000550    0.000000
     2  Ti    c     0.166627    0.499907    0.500275    0.000000
     3  O     c     0.999959    0.499908    0.500270    0.000000
     4  O     c     0.166626    0.999909    0.500256    0.000000
     5  O     c     0.166626    0.499910    0.000257    0.000000
     6  Sr    c     0.333293    0.999914    0.000200    0.000000
     7  Ti    c     0.499961    0.499917    0.500181    0.000000
     8  O     c     0.333291    0.499899    0.500192    0.000000
     9  O     c     0.499960    0.999917    0.500167    0.000000
    10  O     c     0.499960    0.499930    0.000180    0.000000
    11  Sr    c     0.666628    0.999914    0.000199    0.000000
    12  Ti    c     0.833294    0.499906    0.500276    0.000000
    13  O     c     0.666626    0.499895    0.500211    0.000000
    14  O     c     0.833294    0.999909    0.500248    0.000000
    15  O     c     0.833294    0.499912    0.000259    0.000000

  Final Cartesian lattice vectors (Angstroms) :

       11.869508    0.000000    0.000000
        0.000000    3.956501   -0.000000
        0.000000   -0.000000    3.956502

  Final cell parameters and derivatives :

       a           11.869508 Angstrom     dE/de1(xx)     0.002198 eV/strain
       b            3.956501 Angstrom     dE/de2(yy)     0.002110 eV/strain
       c            3.956502 Angstrom     dE/de3(zz)     0.002161 eV/strain
       alpha       90.000000 Degrees      dE/de4(yz)     0.000001 eV/strain
       beta        90.000000 Degrees      dE/de5(xz)     0.000001 eV/strain
       gamma       90.000000 Degrees      dE/de6(xy)     0.000000 eV/strain

  Primitive cell volume =           185.804156 Angs**3

  Density of cell =      4.919918 g/cm**3

  Non-primitive cell volume =           185.804156 Angs**3

  Final internal derivatives :

   No.  Atomic          a             b             c           Radius
        Label          (eV)          (eV)          (eV)        (eV/Angs)
      1 Sr    c       0.000000      0.000000      0.000000      0.000000
      2 Ti    c       0.004633      0.001680     -0.000568      0.000000
      3 O     c      -0.003222     -0.000037      0.001888      0.000000
      4 O     c      -0.000394      0.001689     -0.003814      0.000000
      5 O     c      -0.000559      0.000010     -0.000822      0.000000
      6 Sr    c      -0.000112      0.000035     -0.003048      0.000000
      7 Ti    c       0.003813      0.001466     -0.001810      0.000000
      8 O     c      -0.008928     -0.003089     -0.008861      0.000000
      9 O     c       0.001864      0.001423     -0.002074      0.000000
     10 O     c       0.001702      0.001879     -0.001662      0.000000
     11 Sr    c       0.001138      0.000075     -0.003100      0.000000
     12 Ti    c       0.000409      0.001532     -0.000372      0.000000
     13 O     c      -0.003527     -0.004100     -0.004294      0.000000
     14 O     c       0.001992      0.001652     -0.005799      0.000000
     15 O     c       0.001854      0.000466     -0.000341      0.000000
  Maximum abs         0.008928      0.004100      0.008861      0.000000

  Time to end of optimisation =       0.1598 seconds

 Exiting ------OPTIONS------

  Timing analysis for GULP :

  Task / Subroutine                                          Time (Seconds)
  Calculation of reciprocal space energy and derivatives          0.0179
  Calculation of real space energy and derivatives                0.1329
  Global summation overhead                                       0.0001

  Job Finished at 11:51.24  4th February   2020