  Job Started  at 16:16.04 24th January    2020

  Number of CPUs =     1

  Total number of configurations input =      1

*  Input for Configuration =   1                                               *

  Formula = O9Sr3Ti3

  Number of irreducible atoms/shells =      15

  Total number atoms/shells =      15

  Dimensionality = 3               :  Bulk

  Cartesian lattice vectors (Angstroms) :

        4.000000    0.000000    0.000000
        0.000000    8.000000    0.000000
        0.000000    0.000000   10.000000

  Cell parameters (Angstroms/Degrees):

  a =       4.0000    alpha =  90.0000
  b =       8.0000    beta  =  90.0000
  c =      10.0000    gamma =  90.0000

  Initial cell volume =         320.000000 Angs**3

  Temperature of configuration =  0.000     K

  Pressure of configuration =         0.000 GPa

  Fractional coordinates of asymmetric unit :

   No.  Atomic       x           y          z         Charge      Occupancy
        Label      (Frac)      (Frac)     (Frac)        (e)         (Frac)
      1 O     c    0.500000    0.250000    0.600000    -2.00000    1.000000
      2 O     c    0.000000 *  0.750000 *  0.800000 *  -2.00000    1.000000
      3 O     c    0.500000 *  0.500000 *  0.800000 *  -2.00000    1.000000
      4 O     c    0.500000 *  0.250000 *  0.000000 *  -2.00000    1.000000
      5 O     c    0.500000 *  0.500000 *  0.200000 *  -2.00000    1.000000
      6 O     c    0.000000 *  0.500000 *  0.200000 *  -2.00000    1.000000
      7 O     c    0.000000 *  0.250000 *  0.600000 *  -2.00000    1.000000
      8 O     c    0.500000 *  0.250000 *  0.400000 *  -2.00000    1.000000
      9 O     c    0.500000 *  0.500000 *  0.400000 *  -2.00000    1.000000
     10 Sr    c    0.250000 *  0.875000 *  0.500000 *   2.00000    1.000000
     11 Sr    c    0.250000 *  0.125000 *  0.900000 *   2.00000    1.000000
     12 Sr    c    0.250000 *  0.625000 *  0.900000 *   2.00000    1.000000
     13 Ti    c    0.750000 *  0.875000 *  0.700000 *   4.00000    1.000000
     14 Ti    c    0.750000 *  0.375000 *  0.100000 *   4.00000    1.000000
     15 Ti    c    0.250000 *  0.125000 *  0.500000 *   4.00000    1.000000

*  General input information                                                   *

  Species output for all configurations :

  Species    Type    Atomic    Atomic    Charge       Radii (Angs)     Library
                     Number     Mass       (e)     Cova   Ionic  VDW   Symbol
    O        Core        8      16.00  -2.000000   0.730  0.000  1.360
    Sr       Core       38      87.62   2.000000   1.120  0.000  1.670
    Ti       Core       22      47.88   4.000000   1.470  0.000  2.190

  Lattice summation method               =    Ewald          (3-D)
                                         =    Parry          (2-D)
                                         =    Saunders et al (1-D)
  Accuracy factor for lattice sums       =   12.000

  Time limit = Infinity

  Maximum range for interatomic potentials =    100000.000000 Angstroms

  General interatomic potentials :

Atom  Types   Potential      Parameter       Value         Units   Cutoffs(Ang)
  1     2                                                            Min /  Max
O    c Sr   c Buckingham    Buckingham A     1952.3900    eV        0.000 10.000
                            Buckingham rho  0.33685000    Ang
                            Buckingham C     19.220000    eV*Ang^6
O    c Ti   c Buckingham    Buckingham A     4590.7279    eV        0.000 10.000
                            Buckingham rho  0.26100000    Ang
                            Buckingham C     0.0000000    eV*Ang^6
O    c O    c Buckingham    Buckingham A     1388.7700    eV        0.000 10.000
                            Buckingham rho  0.36262000    Ang
                            Buckingham C     175.00000    eV*Ang^6
 Calling ------OPTIONS------

*  Output for configuration   1                                                *

  Components of energy :

  Interatomic potentials     =          97.01435912 eV
  Monopole - monopole (real) =        -115.35329340 eV
  Monopole - monopole (recip)=        -197.84378280 eV
  Monopole - monopole (total)=        -313.19707620 eV
  Total lattice energy       =        -216.18271708 eV
  Total lattice energy       =          -20858.3275 kJ/(mole unit cells)

  Number of variables =       48

  Maximum number of calculations  =          1000
  Maximum Hessian update interval =            10
  Maximum step size               =   0.010000000
  Maximum parameter tolerance     =   0.000010000
  Maximum function  tolerance     =   0.000010000
  Maximum gradient  tolerance     =   0.001000000
  Maximum gradient  component     =   0.010000000

  Cell parameters to be optimised using strains

  Conjugate gradient optimiser to be used

  Lower half triangular hessian to be used

  Switch max step size to       0.10000000 when gnorm is less than    10.000000

  Start of bulk optimisation :

 Perform trimming
 Line minimisation2
 ALPHA BEFORE:    1.0000000000000000
 ALPHA AFTER:    8.0000000000000016E-002
 Perform trimming
 Line minimisation2
 ALPHA BEFORE:    8.0000000000000016E-002
 ALPHA AFTER:    8.0000000000000016E-002
 Perform trimming
 Line minimisation2
 ALPHA BEFORE:    8.0000000000000016E-002
 ALPHA AFTER:    8.0000000000000016E-002
 Line minimisation2
 ALPHA BEFORE:    8.0000000000000016E-002
 ALPHA AFTER:    8.0000000000000016E-002
 Line minimisation2
 ALPHA BEFORE:    8.0000000000000016E-002
 ALPHA AFTER:    8.0000000000000016E-002
 Line minimisation2
 ALPHA BEFORE:    8.0000000000000016E-002
 ALPHA AFTER:    8.0000000000000016E-002
 Line minimisation2
 ALPHA BEFORE:    8.0000000000000016E-002
 ALPHA AFTER:   0.49353707908395344
 Line minimisation2
 ALPHA BEFORE:   0.49353707908395344
 ALPHA AFTER:   0.27051399718531405
 Line minimisation2
 ALPHA BEFORE:   0.27051399718531405
 ALPHA AFTER:   0.43525699859265699
 Line minimisation2
 ALPHA BEFORE:   0.43525699859265699
 ALPHA AFTER:   0.23309562679738774
 Line minimisation2
 ALPHA BEFORE:   0.23309562679738774
 ALPHA AFTER:   0.25638789532429695
 Perform trimming
 Line minimisation2
 ALPHA BEFORE:   0.25638789532429695
 ALPHA AFTER:   0.21597547001205158
 Line minimisation2
 ALPHA BEFORE:   0.21597547001205158
 ALPHA AFTER:   0.25515810528971072
 Line minimisation2
 ALPHA BEFORE:   0.25515810528971072
 ALPHA AFTER:   0.20153160546917134
 Line minimisation2
 ALPHA BEFORE:   0.20153160546917134
 ALPHA AFTER:   0.40076580273458562
 Line minimisation2
 ALPHA BEFORE:   0.40076580273458562
 ALPHA AFTER:   0.40000000000000002
 Line minimisation2
 ALPHA BEFORE:   0.40000000000000002
 ALPHA AFTER:   0.23109625664550526
 Perform trimming
 Line minimisation2
 ALPHA BEFORE:   0.23109625664550526
 ALPHA AFTER:   0.31554812832275264
 Line minimisation2
 ALPHA BEFORE:   0.31554812832275264
 ALPHA AFTER:   0.14855332773803986
 Line minimisation2
 ALPHA BEFORE:   0.14855332773803986
 ALPHA AFTER:   0.13115795513503167
 Line minimisation2
 ALPHA BEFORE:   0.13115795513503167
 ALPHA AFTER:   0.36557897756751578
 Line minimisation2
 ALPHA BEFORE:   0.36557897756751578
 ALPHA AFTER:   0.38278948878375785
 Perform trimming
 Line minimisation2
 ALPHA BEFORE:   0.38278948878375785
 ALPHA AFTER:   0.49139474439187891
 Line minimisation2
 ALPHA BEFORE:   0.49139474439187891
 ALPHA AFTER:   0.28885031380611031
 Line minimisation2
 ALPHA BEFORE:   0.28885031380611031
 ALPHA AFTER:   0.34442515690305520
 Perform trimming
 Line minimisation2
 ALPHA BEFORE:   0.34442515690305520
 ALPHA AFTER:   0.37221257845152755
 Line minimisation2
 ALPHA BEFORE:   0.37221257845152755
 ALPHA AFTER:   0.23020479199217322
 Line minimisation2
 ALPHA BEFORE:   0.23020479199217322
 ALPHA AFTER:   0.28173339671576170
 Line minimisation2
 ALPHA BEFORE:   0.28173339671576170
 ALPHA AFTER:   0.22102760719647352
 Line minimisation2
 ALPHA BEFORE:   0.22102760719647352
 ALPHA AFTER:   0.15185846494632832
 Line minimisation2
 ALPHA BEFORE:   0.15185846494632832
 ALPHA AFTER:   0.26233271684575027
 Line minimisation2
 ALPHA BEFORE:   0.26233271684575027
 ALPHA AFTER:   0.23820443168215680
 Line minimisation2
 ALPHA BEFORE:   0.23820443168215680
 ALPHA AFTER:   0.31910221584107845
 Line minimisation2
 ALPHA BEFORE:   0.31910221584107845
 ALPHA AFTER:   0.45955110792053921
 Perform trimming
 Line minimisation2
 ALPHA BEFORE:   0.45955110792053921
 ALPHA AFTER:   0.29863436435515689
 Perform trimming
 Line minimisation2
 ALPHA BEFORE:   0.29863436435515689
 ALPHA AFTER:   0.34931718217757846
 Line minimisation2
 ALPHA BEFORE:   0.34931718217757846
 ALPHA AFTER:   0.10313275665903890
 Line minimisation2
 ALPHA BEFORE:   0.10313275665903890
 ALPHA AFTER:   0.35156637832951942
 Line minimisation2
 ALPHA BEFORE:   0.35156637832951942
 ALPHA AFTER:   0.20751343873000339
 Line minimisation2
 ALPHA BEFORE:   0.20751343873000339
 ALPHA AFTER:   0.11440432527866437
 Line minimisation2
 ALPHA BEFORE:   0.11440432527866437
 ALPHA AFTER:   0.41440432527866433
 Line minimisation2
 ALPHA BEFORE:   0.41440432527866433
 ALPHA AFTER:   0.40000000000000002
 Perform trimming
 Line minimisation2
 ALPHA BEFORE:   0.40000000000000002
 ALPHA AFTER:   0.50000000000000000
 Line minimisation2
 ALPHA BEFORE:   0.50000000000000000
 ALPHA AFTER:   0.16564924549395549
 Line minimisation2
 ALPHA BEFORE:   0.16564924549395549
 ALPHA AFTER:   0.48282462274697768
 Line minimisation2
 ALPHA BEFORE:   0.48282462274697768
 ALPHA AFTER:   0.24748022278529641
 Perform trimming
 Line minimisation2
 ALPHA BEFORE:   0.24748022278529641
 ALPHA AFTER:   0.42374011139264822
 Perform trimming
 Line minimisation2
 ALPHA BEFORE:   0.42374011139264822
 ALPHA AFTER:   0.40000000000000002
 Line minimisation2
 ALPHA BEFORE:   0.40000000000000002
 ALPHA AFTER:   0.40000000000000002
 Line minimisation2
 ALPHA BEFORE:   0.40000000000000002
 ALPHA AFTER:   0.26594907329480005
 Line minimisation2
 ALPHA BEFORE:   0.26594907329480005
 ALPHA AFTER:   0.33297453664740007
 Perform trimming
 Line minimisation2
 ALPHA BEFORE:   0.33297453664740007
 ALPHA AFTER:   0.46648726832370002
 Line minimisation2
 ALPHA BEFORE:   0.46648726832370002
 ALPHA AFTER:   0.30000000000000004
 Line minimisation2
 ALPHA BEFORE:   0.30000000000000004
 ALPHA AFTER:   0.44999999999999996
 Line minimisation2
 ALPHA BEFORE:   0.44999999999999996
 ALPHA AFTER:   0.40000000000000002
 Perform trimming
 Line minimisation2
 ALPHA BEFORE:   0.40000000000000002
 ALPHA AFTER:   0.30000000000000004
 Line minimisation2
 ALPHA BEFORE:   0.30000000000000004
 ALPHA AFTER:   0.44999999999999996
 Perform trimming
 Line minimisation2
 ALPHA BEFORE:   0.44999999999999996
 ALPHA AFTER:   0.40000000000000002
 Line minimisation2
 ALPHA BEFORE:   0.40000000000000002
 ALPHA AFTER:   0.40000000000000002
 Line minimisation2
 ALPHA BEFORE:   0.40000000000000002
 ALPHA AFTER:   0.10598384134141409
 Line minimisation2
 ALPHA BEFORE:   0.10598384134141409
 ALPHA AFTER:   0.35299192067070706
 Line minimisation2
 ALPHA BEFORE:   0.35299192067070706
 ALPHA AFTER:   0.37649596033535349
 Line minimisation2
 ALPHA BEFORE:   0.37649596033535349
 ALPHA AFTER:   0.38824798016767670
 Perform trimming
 Line minimisation2
 ALPHA BEFORE:   0.38824798016767670
 ALPHA AFTER:   0.39412399008383836
 Perform trimming
 Line minimisation2
 ALPHA BEFORE:   0.39412399008383836
 ALPHA AFTER:   0.49706199504191917
 Line minimisation2
 ALPHA BEFORE:   0.49706199504191917
 ALPHA AFTER:   0.18524375717838107
 Line minimisation2
 ALPHA BEFORE:   0.18524375717838107
 ALPHA AFTER:   0.24926501090497952
 Line minimisation2
 ALPHA BEFORE:   0.24926501090497952
 ALPHA AFTER:   0.32463250545248978
 Perform trimming
 Line minimisation2
 ALPHA BEFORE:   0.32463250545248978
 ALPHA AFTER:   0.33170357968379466
 Line minimisation2
 ALPHA BEFORE:   0.33170357968379466
 ALPHA AFTER:   0.10622482381894506
 Line minimisation2
 ALPHA BEFORE:   0.10622482381894506
 ALPHA AFTER:   0.35311241190947251
 Line minimisation2
 ALPHA BEFORE:   0.35311241190947251
 ALPHA AFTER:   0.47655620595473625
 Perform trimming
 Line minimisation2
 ALPHA BEFORE:   0.47655620595473625
 ALPHA AFTER:   0.40000000000000002
 Line minimisation2
 ALPHA BEFORE:   0.40000000000000002
 ALPHA AFTER:   0.50000000000000000
 Perform trimming
 Line minimisation2
 ALPHA BEFORE:   0.50000000000000000
 ALPHA AFTER:   0.50000000000000000
 Line minimisation2
 ALPHA BEFORE:   0.50000000000000000
 ALPHA AFTER:   0.40000000000000002
 Perform trimming
 Line minimisation2
 ALPHA BEFORE:   0.40000000000000002
 ALPHA AFTER:   0.40000000000000002
 Line minimisation2
 ALPHA BEFORE:   0.40000000000000002
 ALPHA AFTER:   0.25192902611918944
 Line minimisation2
 ALPHA BEFORE:   0.25192902611918944
 ALPHA AFTER:   0.32596451305959473
 Line minimisation2
 ALPHA BEFORE:   0.32596451305959473
 ALPHA AFTER:   0.17282906110225899
 Line minimisation2
 ALPHA BEFORE:   0.17282906110225899
 ALPHA AFTER:   0.16140205021885043
 Line minimisation2
 ALPHA BEFORE:   0.16140205021885043
 ALPHA AFTER:   0.48070102510942514
 Line minimisation2
 ALPHA BEFORE:   0.48070102510942514
 ALPHA AFTER:   0.30000000000000004
 Perform trimming
 Line minimisation2
 ALPHA BEFORE:   0.30000000000000004
 ALPHA AFTER:   0.44999999999999996
 Perform trimming
 Line minimisation2
 ALPHA BEFORE:   0.44999999999999996
 ALPHA AFTER:   0.40000000000000002
 Line minimisation2
 ALPHA BEFORE:   0.40000000000000002
 ALPHA AFTER:   0.40000000000000002
 Line minimisation2
 ALPHA BEFORE:   0.40000000000000002
 ALPHA AFTER:   0.50000000000000000
 Perform trimming
 Line minimisation2
 ALPHA BEFORE:   0.50000000000000000
 ALPHA AFTER:   0.30000000000000004
 Perform trimming
 Line minimisation2
 ALPHA BEFORE:   0.30000000000000004
 ALPHA AFTER:   0.33571662709026917
 Line minimisation2
 ALPHA BEFORE:   0.33571662709026917
 ALPHA AFTER:   0.15109924140535272
 Line minimisation2
 ALPHA BEFORE:   0.15109924140535272
 ALPHA AFTER:   0.20871992421696481
 Line minimisation2
 ALPHA BEFORE:   0.20871992421696481
 ALPHA AFTER:   0.30435996210848237
 Line minimisation2
 ALPHA BEFORE:   0.30435996210848237
 ALPHA AFTER:   0.35217998105424120
 Line minimisation2
 ALPHA BEFORE:   0.35217998105424120
 ALPHA AFTER:   0.47608999052712053
 Perform trimming
 Line minimisation2
 ALPHA BEFORE:   0.47608999052712053
 ALPHA AFTER:   0.40000000000000002
 Perform trimming
 Line minimisation2
 ALPHA BEFORE:   0.40000000000000002
 ALPHA AFTER:   0.40000000000000002
 Line minimisation2
 ALPHA BEFORE:   0.40000000000000002
 ALPHA AFTER:   0.40000000000000002
 Perform trimming
 Line minimisation2
 ALPHA BEFORE:   0.40000000000000002
 ALPHA AFTER:   0.40000000000000002
 Line minimisation2
 ALPHA BEFORE:   0.40000000000000002
 ALPHA AFTER:   0.15372088834928807
 Line minimisation2
 ALPHA BEFORE:   0.15372088834928807
 ALPHA AFTER:   0.13750290969818227
 Line minimisation2
 ALPHA BEFORE:   0.13750290969818227
 ALPHA AFTER:   0.46875145484909109
 Line minimisation2
 ALPHA BEFORE:   0.46875145484909109
 ALPHA AFTER:   0.30000000000000004
 Perform trimming
 Line minimisation2
 ALPHA BEFORE:   0.30000000000000004
 ALPHA AFTER:   0.34999999999999998
 Line minimisation2
 ALPHA BEFORE:   0.34999999999999998
 ALPHA AFTER:   0.27500000000000002
 Line minimisation2
 ALPHA BEFORE:   0.27500000000000002
 ALPHA AFTER:   0.33750000000000002
 Line minimisation2
 ALPHA BEFORE:   0.33750000000000002
 ALPHA AFTER:   0.25917519885400597
 Line minimisation2
 ALPHA BEFORE:   0.25917519885400597
 ALPHA AFTER:   0.42958759942700298
 Perform trimming
 Line minimisation2
 ALPHA BEFORE:   0.42958759942700298
 ALPHA AFTER:   0.40000000000000002
 Line minimisation2
 ALPHA BEFORE:   0.40000000000000002
 ALPHA AFTER:   0.23814468025064645
 Line minimisation2
 ALPHA BEFORE:   0.23814468025064645
 ALPHA AFTER:   0.18464852882546337
 Line minimisation2
 ALPHA BEFORE:   0.18464852882546337
 ALPHA AFTER:   0.39232426441273172
 Perform trimming
 Line minimisation2
 ALPHA BEFORE:   0.39232426441273172
 ALPHA AFTER:   0.39616213220636587
 Perform trimming
 Line minimisation2
 ALPHA BEFORE:   0.39616213220636587
 ALPHA AFTER:   0.49808106610318292
 Line minimisation2
 ALPHA BEFORE:   0.49808106610318292
 ALPHA AFTER:   0.17745101623398538
 Line minimisation2
 ALPHA BEFORE:   0.17745101623398538
 ALPHA AFTER:   0.22461845203163106
 Line minimisation2
 ALPHA BEFORE:   0.22461845203163106
 ALPHA AFTER:   0.41230922601581554
 Line minimisation2
 ALPHA BEFORE:   0.41230922601581554
 ALPHA AFTER:   0.30000000000000004
 Perform trimming
 Line minimisation2
 ALPHA BEFORE:   0.30000000000000004
 ALPHA AFTER:   0.25000000000000000
 Perform trimming
 Line minimisation2
 ALPHA BEFORE:   0.25000000000000000
 ALPHA AFTER:   0.42500000000000004
 Line minimisation2
 ALPHA BEFORE:   0.42500000000000004
 ALPHA AFTER:   0.10000000000000001
 Line minimisation2
 ALPHA BEFORE:   0.10000000000000001
 ALPHA AFTER:   0.30461897770469509
 Line minimisation2
 ALPHA BEFORE:   0.30461897770469509
 ALPHA AFTER:   0.24910108919709215
 Perform trimming
 Line minimisation2
 ALPHA BEFORE:   0.24910108919709215
 ALPHA AFTER:   0.32455054459854604
 Line minimisation2
 ALPHA BEFORE:   0.32455054459854604
 ALPHA AFTER:   0.26227527229927305
 Line minimisation2
 ALPHA BEFORE:   0.26227527229927305
 ALPHA AFTER:   0.31858625540085928
 Perform trimming
 Line minimisation2
 ALPHA BEFORE:   0.31858625540085928
 ALPHA AFTER:   0.45929312770042963
 Line minimisation2
 ALPHA BEFORE:   0.45929312770042963
 ALPHA AFTER:   0.15620268796587092
 Line minimisation2
 ALPHA BEFORE:   0.15620268796587092
 ALPHA AFTER:   0.18865420439258693
 Line minimisation2
 ALPHA BEFORE:   0.18865420439258693
 ALPHA AFTER:   0.28630363448634133
 Line minimisation2
 ALPHA BEFORE:   0.28630363448634133
 ALPHA AFTER:    8.9252681992381927E-002
 Line minimisation2
 ALPHA BEFORE:    8.9252681992381927E-002
 ALPHA AFTER:   0.44462634099619103
 Line minimisation2
 ALPHA BEFORE:   0.44462634099619103
 ALPHA AFTER:   0.40000000000000002
 Perform trimming
 Line minimisation2
 ALPHA BEFORE:   0.40000000000000002
 ALPHA AFTER:   0.40000000000000002
 Perform trimming
 Line minimisation2
 ALPHA BEFORE:   0.40000000000000002
 ALPHA AFTER:   0.50000000000000000
 Line minimisation2
 ALPHA BEFORE:   0.50000000000000000
 ALPHA AFTER:   0.40000000000000002
 Perform trimming
 Line minimisation2
 ALPHA BEFORE:   0.40000000000000002
 ALPHA AFTER:   0.35882795244623850
 Line minimisation2
 ALPHA BEFORE:   0.35882795244623850
 ALPHA AFTER:   0.10103717065261120
 Line minimisation2
 ALPHA BEFORE:   0.10103717065261120
 ALPHA AFTER:   0.35051858532630564
 Perform trimming
 Line minimisation2
 ALPHA BEFORE:   0.35051858532630564
 ALPHA AFTER:   0.34519984144318039
 Line minimisation2
 ALPHA BEFORE:   0.34519984144318039
 ALPHA AFTER:    8.7228243897268409E-002
 Line minimisation2
 ALPHA BEFORE:    8.7228243897268409E-002
 ALPHA AFTER:   0.44361412194863425
 Line minimisation2
 ALPHA BEFORE:   0.44361412194863425
 ALPHA AFTER:   0.50000000000000000
 Perform trimming
 Line minimisation2
 ALPHA BEFORE:   0.50000000000000000
 ALPHA AFTER:   0.40000000000000002
 Perform trimming
 Line minimisation2
 ALPHA BEFORE:   0.40000000000000002
 ALPHA AFTER:   0.50000000000000000
 Line minimisation2
 ALPHA BEFORE:   0.50000000000000000
 ALPHA AFTER:   0.11047455052390903
 Line minimisation2
 ALPHA BEFORE:   0.11047455052390903
 ALPHA AFTER:   0.35207477844350604
 Perform trimming
 Line minimisation2
 ALPHA BEFORE:   0.35207477844350604
 ALPHA AFTER:    4.0119352881283862E-002
 Line minimisation2
 ALPHA BEFORE:    4.0119352881283862E-002
 ALPHA AFTER:   0.18859356820533965
 Line minimisation2
 ALPHA BEFORE:   0.18859356820533965
 ALPHA AFTER:   0.19429678410266982
 Line minimisation2
 ALPHA BEFORE:   0.19429678410266982
 ALPHA AFTER:    9.7148392051334909E-002
 Line minimisation2
 ALPHA BEFORE:    9.7148392051334909E-002
 ALPHA AFTER:   -4.2808644587908886E-003
 Line minimisation2
 ALPHA BEFORE:    9.7148392051334909E-002
 ALPHA AFTER:   -4.2117661059710744E-003
 Line minimisation2
 ALPHA BEFORE:    9.7148392051334909E-002
 ALPHA AFTER:   -4.2117661059710744E-003

  **** Conditions for a minimum have not been satisfied. However ****
  **** no lower point can be found - treat results with caution  ****
  **** unless gradient norm is small (less than 0.1)             ****

  Final energy =    -467.56314475 eV
  Final Gnorm  =       0.01403983

  Components of energy :

  Interatomic potentials     =          71.84818712 eV
  Monopole - monopole (real) =        -270.71369444 eV
  Monopole - monopole (recip)=        -268.69763743 eV
  Monopole - monopole (total)=        -539.41133187 eV
  Total lattice energy       =        -467.56314475 eV
  Total lattice energy       =          -45112.6961 kJ/(mole unit cells)

  Final fractional coordinates of atoms :

   No.  Atomic        x           y          z          Radius
        Label       (Frac)      (Frac)     (Frac)       (Angs)
     1  O     c     0.500000    0.250000    0.600000    0.000000
     2  O     c     0.936561    0.048316    0.797749    0.000000
     3  O     c     0.365648    0.778924    0.734124    0.000000
     4  O     c     0.548064    0.271769    0.057992    0.000000
     5  O     c     0.575333    0.692628    0.147605    0.000000
     6  O     c     0.962157    0.495281    0.323842    0.000000
     7  O     c     0.925851    0.153813    0.519668    0.000000
     8  O     c     0.340309    0.282714    0.319414    0.000000
     9  O     c     0.484764    0.708505    0.509168    0.000000
    10  Sr    c     0.933060    0.876467    0.366588    0.000000
    11  Sr    c     0.384121    0.397347    0.808422    0.000000
    12  Sr    c     0.325128    0.888502    0.952764    0.000000
    13  Ti    c     0.645926    0.993145    0.637713    0.000000
    14  Ti    c     0.600561    0.412119    0.204023    0.000000
    15  Ti    c     0.255305    0.398459    0.463333    0.000000

  Final Cartesian lattice vectors (Angstroms) :

        4.855677   -0.734914   -0.573065
       -1.469829    5.952751    0.516542
       -1.432661    0.645678    9.789289

  Final cell parameters and derivatives :

       a            4.944300 Angstrom     dE/de1(xx)    -0.031566 eV/strain
       b            6.153247 Angstrom     dE/de2(yy)     0.002203 eV/strain
       c            9.914615 Angstrom     dE/de3(zz)    -0.027194 eV/strain
       alpha       79.606722 Degrees      dE/de4(yz)     0.018865 eV/strain
       beta       105.428093 Degrees      dE/de5(xz)     0.145462 eV/strain
       gamma      112.837200 Degrees      dE/de6(xy)     0.015516 eV/strain

  Primitive cell volume =           266.962459 Angs**3

  Density of cell =      3.424232 g/cm**3

  Non-primitive cell volume =           266.962459 Angs**3

  Final internal derivatives :

   No.  Atomic          a             b             c           Radius
        Label          (eV)          (eV)          (eV)        (eV/Angs)
      1 O     c       0.000000      0.000000      0.000000      0.000000
      2 O     c      -0.211873     -0.177559      0.042549      0.000000
      3 O     c      -0.237240     -0.075499     -0.045747      0.000000
      4 O     c      -0.038271     -0.034335     -0.086478      0.000000
      5 O     c       0.074816     -0.047331      0.000766      0.000000
      6 O     c       0.018581     -0.134085     -0.061122      0.000000
      7 O     c       0.004046     -0.067660      0.041064      0.000000
      8 O     c       0.043874     -0.114297      0.014335      0.000000
      9 O     c      -0.062606     -0.059340     -0.067350      0.000000
     10 Sr    c       0.098321     -0.135176      0.047172      0.000000
     11 Sr    c      -0.330708     -0.101064     -0.050286      0.000000
     12 Sr    c       0.153400     -0.024125     -0.005901      0.000000
     13 Ti    c      -0.067910     -0.077208     -0.112290      0.000000
     14 Ti    c       0.044604     -0.085447     -0.029057      0.000000
     15 Ti    c      -0.000417     -0.068149     -0.022353      0.000000
  Maximum abs         0.330708      0.177559      0.112290      0.000000

  Time to end of optimisation =       1.3271 seconds

 Exiting ------OPTIONS------

  Timing analysis for GULP :

  Task / Subroutine                                          Time (Seconds)
  Calculation of reciprocal space energy and derivatives          0.0882
  Calculation of real space energy and derivatives                1.2258
  Global summation overhead                                       0.0005

  Job Finished at 16:16.06 24th January    2020