  Job Started  at 16:32.28 24th January    2020

  Number of CPUs =     1

  Total number of configurations input =      1

*  Input for Configuration =   1                                               *

  Formula = O9Sr3Ti3

  Number of irreducible atoms/shells =      15

  Total number atoms/shells =      15

  Dimensionality = 3               :  Bulk

  Cartesian lattice vectors (Angstroms) :

        4.000000    0.000000    0.000000
        0.000000    6.000000    0.000000
        0.000000    0.000000   10.000000

  Cell parameters (Angstroms/Degrees):

  a =       4.0000    alpha =  90.0000
  b =       6.0000    beta  =  90.0000
  c =      10.0000    gamma =  90.0000

  Initial cell volume =         240.000000 Angs**3

  Temperature of configuration =  0.000     K

  Pressure of configuration =         0.000 GPa

  Fractional coordinates of asymmetric unit :

   No.  Atomic       x           y          z         Charge      Occupancy
        Label      (Frac)      (Frac)     (Frac)        (e)         (Frac)
      1 O     c    0.000000    0.333330    0.800000    -2.00000    1.000000
      2 O     c    0.000000 *  0.000000 *  0.800000 *  -2.00000    1.000000
      3 O     c    0.500000 *  0.666670 *  0.600000 *  -2.00000    1.000000
      4 O     c    0.000000 *  0.666670 *  0.600000 *  -2.00000    1.000000
      5 O     c    0.000000 *  0.333330 *  0.000000 *  -2.00000    1.000000
      6 O     c    0.000000 *  0.666670 *  0.800000 *  -2.00000    1.000000
      7 O     c    0.000000 *  0.000000 *  0.200000 *  -2.00000    1.000000
      8 O     c    0.500000 *  0.333330 *  0.200000 *  -2.00000    1.000000
      9 O     c    0.000000 *  0.000000 *  0.000000 *  -2.00000    1.000000
     10 Sr    c    0.750000 *  0.166670 *  0.900000 *   2.00000    1.000000
     11 Sr    c    0.250000 *  0.166670 *  0.900000 *   2.00000    1.000000
     12 Sr    c    0.250000 *  0.166670 *  0.100000 *   2.00000    1.000000
     13 Ti    c    0.750000 *  0.166670 *  0.700000 *   4.00000    1.000000
     14 Ti    c    0.250000 *  0.166670 *  0.500000 *   4.00000    1.000000
     15 Ti    c    0.250000 *  0.166670 *  0.700000 *   4.00000    1.000000

*  General input information                                                   *

  Species output for all configurations :

  Species    Type    Atomic    Atomic    Charge       Radii (Angs)     Library
                     Number     Mass       (e)     Cova   Ionic  VDW   Symbol
    O        Core        8      16.00  -2.000000   0.730  0.000  1.360
    Sr       Core       38      87.62   2.000000   1.120  0.000  1.670
    Ti       Core       22      47.88   4.000000   1.470  0.000  2.190

  Lattice summation method               =    Ewald          (3-D)
                                         =    Parry          (2-D)
                                         =    Saunders et al (1-D)
  Accuracy factor for lattice sums       =   12.000

  Time limit = Infinity

  Maximum range for interatomic potentials =    100000.000000 Angstroms

  General interatomic potentials :

Atom  Types   Potential      Parameter       Value         Units   Cutoffs(Ang)
  1     2                                                            Min /  Max
O    c Sr   c Buckingham    Buckingham A     1952.3900    eV        0.000 10.000
                            Buckingham rho  0.33685000    Ang
                            Buckingham C     19.220000    eV*Ang^6
O    c Ti   c Buckingham    Buckingham A     4590.7279    eV        0.000 10.000
                            Buckingham rho  0.26100000    Ang
                            Buckingham C     0.0000000    eV*Ang^6
O    c O    c Buckingham    Buckingham A     1388.7700    eV        0.000 10.000
                            Buckingham rho  0.36262000    Ang
                            Buckingham C     175.00000    eV*Ang^6
 Calling ------OPTIONS------

*  Output for configuration   1                                                *

  Components of energy :

  Interatomic potentials     =         184.55920138 eV
  Monopole - monopole (real) =          -3.58671899 eV
  Monopole - monopole (recip)=        -195.13406381 eV
  Monopole - monopole (total)=        -198.72078279 eV
  Total lattice energy       =         -14.16158142 eV
  Total lattice energy       =           -1366.3761 kJ/(mole unit cells)

  Number of variables =       48

  Maximum number of calculations  =          1000
  Maximum Hessian update interval =            10
  Maximum step size               =   0.001000000
  Maximum parameter tolerance     =   0.000010000
  Maximum function  tolerance     =   0.000010000
  Maximum gradient  tolerance     =   0.001000000
  Maximum gradient  component     =   0.010000000

  Cell parameters to be optimised using strains

  Conjugate gradient optimiser to be used

  Lower half triangular hessian to be used

  Switch max step size to       0.10000000 when gnorm is less than    10.000000

  Start of bulk optimisation :

 Perform trimming
 Line minimisation2
 ALPHA BEFORE:    1.0000000000000000
 ALPHA AFTER:    5.0000000000000010E-003
 Perform trimming
 Line minimisation2
 ALPHA BEFORE:    5.0000000000000010E-003
 ALPHA AFTER:    8.0000000000000019E-003
 Perform trimming
 Line minimisation2
 ALPHA BEFORE:    8.0000000000000019E-003
 ALPHA AFTER:    8.0000000000000019E-003
 Perform trimming
 Line minimisation2
 ALPHA BEFORE:    8.0000000000000019E-003
 ALPHA AFTER:    8.0000000000000019E-003
 Perform trimming
 Line minimisation2
 ALPHA BEFORE:    8.0000000000000019E-003
 ALPHA AFTER:    8.0000000000000019E-003
 Line minimisation2
 ALPHA BEFORE:    8.0000000000000019E-003
 ALPHA AFTER:    8.0000000000000019E-003
 Line minimisation2
 ALPHA BEFORE:    8.0000000000000019E-003
 ALPHA AFTER:    8.0000000000000019E-003
 Line minimisation2
 ALPHA BEFORE:    8.0000000000000019E-003
 ALPHA AFTER:    8.0000000000000019E-003
 Line minimisation2
 ALPHA BEFORE:    8.0000000000000019E-003
 ALPHA AFTER:    8.0000000000000019E-003
 Line minimisation2
 ALPHA BEFORE:    8.0000000000000019E-003
 ALPHA AFTER:    8.0000000000000019E-003
 Line minimisation2
 ALPHA BEFORE:    8.0000000000000019E-003
 ALPHA AFTER:    8.0000000000000019E-003
 Line minimisation2
 ALPHA BEFORE:    8.0000000000000019E-003
 ALPHA AFTER:    8.0000000000000019E-003
 Line minimisation2
 ALPHA BEFORE:    8.0000000000000019E-003
 ALPHA AFTER:    8.0000000000000019E-003
 Line minimisation2
 ALPHA BEFORE:    8.0000000000000019E-003
 ALPHA AFTER:    8.0000000000000019E-003
 Line minimisation2
 ALPHA BEFORE:    8.0000000000000019E-003
 ALPHA AFTER:    8.0000000000000019E-003
 Line minimisation2
 ALPHA BEFORE:    8.0000000000000019E-003
 ALPHA AFTER:    8.0000000000000019E-003
 Line minimisation2
 ALPHA BEFORE:    8.0000000000000019E-003
 ALPHA AFTER:    8.0000000000000019E-003
 Line minimisation2
 ALPHA BEFORE:    8.0000000000000019E-003
 ALPHA AFTER:    8.0000000000000019E-003
 Line minimisation2
 ALPHA BEFORE:    8.0000000000000019E-003
 ALPHA AFTER:    8.0000000000000019E-003
 Line minimisation2
 ALPHA BEFORE:    8.0000000000000019E-003
 ALPHA AFTER:    8.0000000000000019E-003
 Line minimisation2
 ALPHA BEFORE:    8.0000000000000019E-003
 ALPHA AFTER:    8.0000000000000019E-003
 Line minimisation2
 ALPHA BEFORE:    8.0000000000000019E-003
 ALPHA AFTER:    8.0000000000000019E-003
 Line minimisation2
 ALPHA BEFORE:    8.0000000000000019E-003
 ALPHA AFTER:    8.0000000000000019E-003
 Line minimisation2
 ALPHA BEFORE:    8.0000000000000019E-003
 ALPHA AFTER:    8.0000000000000019E-003
 Line minimisation2
 ALPHA BEFORE:    8.0000000000000019E-003
 ALPHA AFTER:    8.0000000000000019E-003
 Line minimisation2
 ALPHA BEFORE:    8.0000000000000019E-003
 ALPHA AFTER:    8.0000000000000019E-003
 Line minimisation2
 ALPHA BEFORE:    8.0000000000000019E-003
 ALPHA AFTER:    5.0000000000000010E-003
 Line minimisation2
 ALPHA BEFORE:    5.0000000000000010E-003
 ALPHA AFTER:    5.0000000000000010E-003
 Line minimisation2
 ALPHA BEFORE:    5.0000000000000010E-003
 ALPHA AFTER:    5.0000000000000010E-003
 Line minimisation2
 ALPHA BEFORE:    5.0000000000000010E-003
 ALPHA AFTER:    5.0000000000000010E-003
 Line minimisation2
 ALPHA BEFORE:    5.0000000000000010E-003
 ALPHA AFTER:    5.0000000000000010E-003
 Line minimisation2
 ALPHA BEFORE:    5.0000000000000010E-003
 ALPHA AFTER:    5.0000000000000010E-003
 Line minimisation2
 ALPHA BEFORE:    5.0000000000000010E-003
 ALPHA AFTER:    5.0000000000000010E-003
 Line minimisation2
 ALPHA BEFORE:    5.0000000000000010E-003
 ALPHA AFTER:    5.0000000000000010E-003
 Line minimisation2
 ALPHA BEFORE:    5.0000000000000010E-003
 ALPHA AFTER:    5.0000000000000010E-003
 Line minimisation2
 ALPHA BEFORE:    5.0000000000000010E-003
 ALPHA AFTER:    5.0000000000000010E-003
 Line minimisation2
 ALPHA BEFORE:    5.0000000000000010E-003
 ALPHA AFTER:    5.0000000000000010E-003
 Line minimisation2
 ALPHA BEFORE:    5.0000000000000010E-003
 ALPHA AFTER:    5.0000000000000010E-003
 Line minimisation2
 ALPHA BEFORE:    5.0000000000000010E-003
 ALPHA AFTER:    5.0000000000000010E-003
 Line minimisation2
 ALPHA BEFORE:    5.0000000000000010E-003
 ALPHA AFTER:    5.0000000000000010E-003
 Line minimisation2
 ALPHA BEFORE:    5.0000000000000010E-003
 ALPHA AFTER:    5.0000000000000010E-003
 Line minimisation2
 ALPHA BEFORE:    5.0000000000000010E-003
 ALPHA AFTER:    5.0000000000000010E-003
 Line minimisation2
 ALPHA BEFORE:    5.0000000000000010E-003
 ALPHA AFTER:    5.0000000000000010E-003
 Line minimisation2
 ALPHA BEFORE:    5.0000000000000010E-003
 ALPHA AFTER:    5.0000000000000010E-003
 Line minimisation2
 ALPHA BEFORE:    5.0000000000000010E-003
 ALPHA AFTER:    5.0000000000000010E-003
 Line minimisation2
 ALPHA BEFORE:    5.0000000000000010E-003
 ALPHA AFTER:    5.0000000000000010E-003
 Line minimisation2
 ALPHA BEFORE:    5.0000000000000010E-003
 ALPHA AFTER:    5.0000000000000010E-003
 Line minimisation2
 ALPHA BEFORE:    5.0000000000000010E-003
 ALPHA AFTER:    5.0000000000000010E-003
 Line minimisation2
 ALPHA BEFORE:    5.0000000000000010E-003
 ALPHA AFTER:    5.0000000000000010E-003
 Line minimisation2
 ALPHA BEFORE:    5.0000000000000010E-003
 ALPHA AFTER:    5.0000000000000010E-003
 Line minimisation2
 ALPHA BEFORE:    5.0000000000000010E-003
 ALPHA AFTER:    5.0000000000000010E-003
 Line minimisation2
 ALPHA BEFORE:    5.0000000000000010E-003
 ALPHA AFTER:    5.0000000000000010E-003
 Line minimisation2
 ALPHA BEFORE:    5.0000000000000010E-003
 ALPHA AFTER:    5.0000000000000010E-003
 Line minimisation2
 ALPHA BEFORE:    5.0000000000000010E-003
 ALPHA AFTER:   0.48292512545290445
 Perform trimming
 Line minimisation2
 ALPHA BEFORE:   0.48292512545290445
 ALPHA AFTER:   0.58241931632311339
 Line minimisation2
 ALPHA BEFORE:   0.58241931632311339
 ALPHA AFTER:   0.14192827815479167
 Line minimisation2
 ALPHA BEFORE:   0.14192827815479167
 ALPHA AFTER:   0.16923375622581313
 Line minimisation2
 ALPHA BEFORE:   0.16923375622581313
 ALPHA AFTER:   0.33259338607503353
 Line minimisation2
 ALPHA BEFORE:   0.33259338607503353
 ALPHA AFTER:   0.20011815082080886
 Line minimisation2
 ALPHA BEFORE:   0.20011815082080886
 ALPHA AFTER:   0.12801542690499582
[...]
 Perform trimming
 Line minimisation2
 ALPHA BEFORE:   0.15152849652763412
 ALPHA AFTER:   0.10957383019808130
 Line minimisation2
 ALPHA BEFORE:   0.10957383019808130
 ALPHA AFTER:    5.4786915099040649E-002
 Line minimisation2
 ALPHA BEFORE:    5.4786915099040649E-002
 ALPHA AFTER:    8.3418060894136142E-002
 Perform trimming
 Line minimisation2
 ALPHA BEFORE:    8.3418060894136142E-002
 ALPHA AFTER:   0.15614523453508430
 Line minimisation2
 ALPHA BEFORE:   0.15614523453508430
 ALPHA AFTER:    6.9501149409892146E-002
 Line minimisation2
 ALPHA BEFORE:    6.9501149409892146E-002
 ALPHA AFTER:    4.0955817564766267E-002
 Line minimisation2
 ALPHA BEFORE:    4.0955817564766267E-002
 ALPHA AFTER:    8.0932559147086899E-002
 Line minimisation2
 ALPHA BEFORE:    8.0932559147086899E-002
 ALPHA AFTER:    6.0247358753059990E-002
 Line minimisation2
 ALPHA BEFORE:    6.0247358753059990E-002
 ALPHA AFTER:    8.0599544726021238E-002
 Line minimisation2
 ALPHA BEFORE:    8.0599544726021238E-002
 ALPHA AFTER:    9.3056917605441561E-002
 Perform trimming
 Line minimisation2
 ALPHA BEFORE:    9.3056917605441561E-002
 ALPHA AFTER:    8.3228646285133906E-002
 Line minimisation2
 ALPHA BEFORE:    8.3228646285133906E-002
 ALPHA AFTER:   0.14161432314256694
 Perform trimming
 Line minimisation2
 ALPHA BEFORE:   0.14161432314256694
 ALPHA AFTER:    7.9273431840804875E-002
 Line minimisation2
 ALPHA BEFORE:    7.9273431840804875E-002
 ALPHA AFTER:    7.8200221604237147E-002
 Line minimisation2
 ALPHA BEFORE:    7.8200221604237147E-002
 ALPHA AFTER:    5.9813413502236810E-002
 Line minimisation2
 ALPHA BEFORE:    5.9813413502236810E-002
 ALPHA AFTER:    3.9869830916799423E-002
 Line minimisation2
 ALPHA BEFORE:    3.9869830916799423E-002
 ALPHA AFTER:    5.8592799550529123E-002
 Line minimisation2
 ALPHA BEFORE:    5.8592799550529123E-002
 ALPHA AFTER:   0.19711352769105728
 Perform trimming
 Line minimisation2
 ALPHA BEFORE:   0.19711352769105728
 ALPHA AFTER:   0.13645372872675310
 Line minimisation2
 ALPHA BEFORE:   0.13645372872675310
 ALPHA AFTER:   0.10371917531803190
 Perform trimming
 Line minimisation2
 ALPHA BEFORE:   0.10371917531803190
 ALPHA AFTER:    7.1317430905744689E-002
 Line minimisation2
 ALPHA BEFORE:    7.1317430905744689E-002
 ALPHA AFTER:   0.16089433000771947
 Perform trimming
 Line minimisation2
 ALPHA BEFORE:   0.16089433000771947
 ALPHA AFTER:   0.11902995982932925
 Perform trimming
 Line minimisation2
 ALPHA BEFORE:   0.11902995982932925
 ALPHA AFTER:    7.7003745914416527E-002
 Line minimisation2
 ALPHA BEFORE:    7.7003745914416527E-002
 ALPHA AFTER:   0.10934293467422690
 Line minimisation2
 ALPHA BEFORE:   0.10934293467422690
 ALPHA AFTER:    2.7043650095453228E-002
 Line minimisation2
 ALPHA BEFORE:    2.7043650095453228E-002
 ALPHA AFTER:    7.9157222542574512E-002
 Line minimisation2
 ALPHA BEFORE:    7.9157222542574512E-002
 ALPHA AFTER:    9.8551713557103349E-002
 Perform trimming
 Line minimisation2
 ALPHA BEFORE:    9.8551713557103349E-002
 ALPHA AFTER:   0.10913207872152400
 Line minimisation2
 ALPHA BEFORE:   0.10913207872152400
 ALPHA AFTER:   0.17294084222378811
 Perform trimming
 Line minimisation2
 ALPHA BEFORE:   0.17294084222378811
 ALPHA AFTER:   0.17073206902811680
 Perform trimming
 Line minimisation2
 ALPHA BEFORE:   0.17073206902811680
 ALPHA AFTER:   0.14031760313462319
 Perform trimming
 Line minimisation2
 ALPHA BEFORE:   0.14031760313462319
 ALPHA AFTER:   0.10719001090156036
 Line minimisation2
 ALPHA BEFORE:   0.10719001090156036
 ALPHA AFTER:    9.7515697321873054E-002
 Perform trimming
 Line minimisation2
 ALPHA BEFORE:    9.7515697321873054E-002
 ALPHA AFTER:    7.7788442695776616E-002
 Line minimisation2
 ALPHA BEFORE:    7.7788442695776616E-002
 ALPHA AFTER:    4.7889440341687253E-002
 Line minimisation2
 ALPHA BEFORE:    4.7889440341687253E-002
 ALPHA AFTER:    4.7587773578976679E-002
 Line minimisation2
 ALPHA BEFORE:    4.7587773578976679E-002
 ALPHA AFTER:    9.5698031284460236E-002
 Line minimisation2
 ALPHA BEFORE:    9.5698031284460236E-002
 ALPHA AFTER:    5.9667124171482518E-002
 Line minimisation2
 ALPHA BEFORE:    5.9667124171482518E-002
 ALPHA AFTER:   0.11738954487309350
 Line minimisation2
 ALPHA BEFORE:   0.11738954487309350
 ALPHA AFTER:   0.12750563121004260
 Perform trimming
 Line minimisation2
 ALPHA BEFORE:   0.12750563121004260
 ALPHA AFTER:   0.12754914976068851
 Perform trimming
 Line minimisation2
 ALPHA BEFORE:   0.12754914976068851
 ALPHA AFTER:   0.13131886114557242
 Perform trimming
 Line minimisation2
 ALPHA BEFORE:   0.13131886114557242
 ALPHA AFTER:    4.8082703548459692E-002
 Line minimisation2
 ALPHA BEFORE:    4.8082703548459692E-002
 ALPHA AFTER:    9.3297193121416419E-002
 Line minimisation2
 ALPHA BEFORE:    9.3297193121416419E-002
 ALPHA AFTER:    4.4598052533422756E-002
 Line minimisation2
 ALPHA BEFORE:    4.4598052533422756E-002
 ALPHA AFTER:    6.1280136650245176E-002
 Line minimisation2
 ALPHA BEFORE:    6.1280136650245176E-002
 ALPHA AFTER:   0.16210889499691386
 Perform trimming
 Line minimisation2
 ALPHA BEFORE:   0.16210889499691386
 ALPHA AFTER:    9.1878020521343653E-002
 Line minimisation2
 ALPHA BEFORE:    9.1878020521343653E-002
 ALPHA AFTER:    7.8990764354874649E-002
 Perform trimming
 Line minimisation2
 ALPHA BEFORE:    7.8990764354874649E-002
 ALPHA AFTER:   0.10997843542902894
 Perform trimming
 Line minimisation2
 ALPHA BEFORE:   0.10997843542902894
 ALPHA AFTER:   0.15751146979919703
 Line minimisation2
 ALPHA BEFORE:   0.15751146979919703
 ALPHA AFTER:    4.6447542043782424E-002
 Line minimisation2
 ALPHA BEFORE:    4.6447542043782424E-002
 ALPHA AFTER:   0.17814050854436078
 Perform trimming
 Line minimisation2
 ALPHA BEFORE:   0.17814050854436078
 ALPHA AFTER:   0.10022155066621162
 Line minimisation2
 ALPHA BEFORE:   0.10022155066621162
 ALPHA AFTER:    3.9399425337158990E-002
 Line minimisation2
 ALPHA BEFORE:    3.9399425337158990E-002
 ALPHA AFTER:    8.9332399317558001E-002
 Line minimisation2
 ALPHA BEFORE:    8.9332399317558001E-002
 ALPHA AFTER:    4.4666199658779000E-002
 Line minimisation2
 ALPHA BEFORE:    4.4666199658779000E-002
 ALPHA AFTER:   0.22233309982938951
 Perform trimming
 Line minimisation2
 ALPHA BEFORE:   0.22233309982938951
 ALPHA AFTER:    9.6026842853121200E-002
 Line minimisation2
 ALPHA BEFORE:    9.6026842853121200E-002
 ALPHA AFTER:    5.1240568615129690E-002
 Line minimisation2
 ALPHA BEFORE:    5.1240568615129690E-002
 ALPHA AFTER:    8.7294920246788116E-002
 Perform trimming
 Line minimisation2
 ALPHA BEFORE:    8.7294920246788116E-002
 ALPHA AFTER:   0.13021781812831981
 Line minimisation2
 ALPHA BEFORE:   0.13021781812831981
 ALPHA AFTER:    5.0315507521650316E-002
 Line minimisation2
 ALPHA BEFORE:    5.0315507521650316E-002
 ALPHA AFTER:   0.15313135343252582
 Line minimisation2
 ALPHA BEFORE:   0.15313135343252582
 ALPHA AFTER:    3.6166829411822234E-002
 Line minimisation2
 ALPHA BEFORE:    3.6166829411822234E-002
 ALPHA AFTER:    5.8196173066998452E-002
 Line minimisation2
 ALPHA BEFORE:    5.8196173066998452E-002
 ALPHA AFTER:    7.1222595915051173E-002
 Line minimisation2
 ALPHA BEFORE:    7.1222595915051173E-002
 ALPHA AFTER:   0.11475599169193412
 Line minimisation2
 ALPHA BEFORE:   0.11475599169193412
 ALPHA AFTER:    8.0250403683740992E-002
 Perform trimming
 Line minimisation2
 ALPHA BEFORE:    8.0250403683740992E-002
 ALPHA AFTER:    8.3129464323709185E-002
 Line minimisation2
 ALPHA BEFORE:    8.3129464323709185E-002
 ALPHA AFTER:   0.34156473216185462
 Perform trimming
 Line minimisation2
 ALPHA BEFORE:   0.34156473216185462
 ALPHA AFTER:   0.17078236608092731
 Perform trimming
 Line minimisation2
 ALPHA BEFORE:   0.17078236608092731
 ALPHA AFTER:    7.8067897465212310E-002
 Line minimisation2
 ALPHA BEFORE:    7.8067897465212310E-002
 ALPHA AFTER:    8.2480415341809291E-002
 Line minimisation2
 ALPHA BEFORE:    8.2480415341809291E-002
 ALPHA AFTER:    3.1111386609321157E-002
 Line minimisation2
 ALPHA BEFORE:    3.1111386609321157E-002
 ALPHA AFTER:    6.4122582368303538E-002
 Line minimisation2
 ALPHA BEFORE:    6.4122582368303538E-002
 ALPHA AFTER:    7.3298697373781169E-002
 Line minimisation2
 ALPHA BEFORE:    7.3298697373781169E-002
 ALPHA AFTER:   0.13308653964992542
 Line minimisation2
 ALPHA BEFORE:   0.13308653964992542
 ALPHA AFTER:    7.2616740791656351E-002
 Line minimisation2
 ALPHA BEFORE:    7.2616740791656351E-002
 ALPHA AFTER:    4.3303918307144917E-002
 Line minimisation2
 ALPHA BEFORE:    4.3303918307144917E-002
 ALPHA AFTER:   0.19207769090828622
 Perform trimming
 Line minimisation2
 ALPHA BEFORE:   0.19207769090828622
 ALPHA AFTER:    7.8148723538207787E-002
 Line minimisation2
 ALPHA BEFORE:    7.8148723538207787E-002
 ALPHA AFTER:   0.11855124329074364
 Perform trimming
 Line minimisation2
 ALPHA BEFORE:   0.11855124329074364
 ALPHA AFTER:    9.2397887314121824E-002
 Line minimisation2
 ALPHA BEFORE:    9.2397887314121824E-002
 ALPHA AFTER:    4.7207122109781494E-002
 Line minimisation2
 ALPHA BEFORE:    4.7207122109781494E-002
 ALPHA AFTER:    4.7128069507488123E-002
 Line minimisation2
 ALPHA BEFORE:    4.7128069507488123E-002
 ALPHA AFTER:   0.22356403475374409
 Perform trimming
 Line minimisation2
 ALPHA BEFORE:   0.22356403475374409
 ALPHA AFTER:   0.18411268901806618
 Perform trimming
 Line minimisation2
 ALPHA BEFORE:   0.18411268901806618
 ALPHA AFTER:   0.11059121784894564
 Line minimisation2
 ALPHA BEFORE:   0.11059121784894564
 ALPHA AFTER:   0.10750066925174161
 Perform trimming
 Line minimisation2
 ALPHA BEFORE:   0.10750066925174161
 ALPHA AFTER:   0.11741603616979379
 Line minimisation2
 ALPHA BEFORE:   0.11741603616979379
 ALPHA AFTER:   0.10372504955431662
 Perform trimming
 Line minimisation2
 ALPHA BEFORE:   0.10372504955431662
 ALPHA AFTER:    5.6796262871720668E-002
 Line minimisation2
 ALPHA BEFORE:    5.6796262871720668E-002
 ALPHA AFTER:   0.13961599822424448
 Line minimisation2
 ALPHA BEFORE:   0.13961599822424448
 ALPHA AFTER:    5.0950620694392539E-002
 Line minimisation2
 ALPHA BEFORE:    5.0950620694392539E-002
 ALPHA AFTER:    6.7219197766269639E-002
 Line minimisation2
 ALPHA BEFORE:    6.7219197766269639E-002
 ALPHA AFTER:    9.5211683972484432E-002
 Perform trimming
 Line minimisation2
 ALPHA BEFORE:    9.5211683972484432E-002
 ALPHA AFTER:    6.4455899189830523E-002
 Line minimisation2
 ALPHA BEFORE:    6.4455899189830523E-002
 ALPHA AFTER:   0.22478697039570075
 Perform trimming
 Line minimisation2
 ALPHA BEFORE:   0.22478697039570075
 ALPHA AFTER:   0.13101469074449154
 Perform trimming
 Line minimisation2
 ALPHA BEFORE:   0.13101469074449154
 ALPHA AFTER:   0.10799898215605669
 Perform trimming
 Line minimisation2
 ALPHA BEFORE:   0.10799898215605669
 ALPHA AFTER:   0.12543636029909289
 Perform trimming
 Line minimisation2
 ALPHA BEFORE:   0.12543636029909289
 ALPHA AFTER:   0.12498231710608804
 Perform trimming
 Line minimisation2
 ALPHA BEFORE:   0.12498231710608804
 ALPHA AFTER:    8.5186988994478019E-002
 Line minimisation2
 ALPHA BEFORE:    8.5186988994478019E-002
 ALPHA AFTER:    4.6883945762949013E-002
 Line minimisation2
 ALPHA BEFORE:    4.6883945762949013E-002
 ALPHA AFTER:    7.0933362973963576E-002
 Line minimisation2
 ALPHA BEFORE:    7.0933362973963576E-002
 ALPHA AFTER:    7.9712928871074465E-002
 Line minimisation2
 ALPHA BEFORE:    7.9712928871074465E-002
 ALPHA AFTER:    5.9158184686808273E-002
 Line minimisation2
 ALPHA BEFORE:    5.9158184686808273E-002
 ALPHA AFTER:    8.7917689660125350E-002
 Line minimisation2
 ALPHA BEFORE:    8.7917689660125350E-002
 ALPHA AFTER:    5.8474242235607696E-002
 Line minimisation2
 ALPHA BEFORE:    5.8474242235607696E-002
 ALPHA AFTER:   0.19945141842550435
 Line minimisation2
 ALPHA BEFORE:   0.19945141842550435
 ALPHA AFTER:    9.1669465957453664E-002
 Perform trimming
 Line minimisation2
 ALPHA BEFORE:    9.1669465957453664E-002
 ALPHA AFTER:    4.5597279722273669E-002
 Line minimisation2
 ALPHA BEFORE:    4.5597279722273669E-002
 ALPHA AFTER:   0.42279863986113686
 Line minimisation2
 ALPHA BEFORE:   0.42279863986113686
 ALPHA AFTER:    0.0000000000000000
 Line minimisation2
 ALPHA BEFORE:    0.0000000000000000
 ALPHA AFTER:    0.0000000000000000
 Line minimisation2
 ALPHA BEFORE:    0.0000000000000000
 ALPHA AFTER:    0.0000000000000000

  **** Conditions for a minimum have not been satisfied. However ****
  **** no lower point can be found - treat results with caution  ****
  **** unless gradient norm is small (less than 0.1)             ****

  Final energy =    -465.42761636 eV
  Final Gnorm  =       0.40520621

  Components of energy :

  Interatomic potentials     =          73.31311374 eV
  Monopole - monopole (real) =        -293.34934966 eV
  Monopole - monopole (recip)=        -245.39138045 eV
  Monopole - monopole (total)=        -538.74073011 eV
  Total lattice energy       =        -465.42761636 eV
  Total lattice energy       =          -44906.6503 kJ/(mole unit cells)

  Final fractional coordinates of atoms :

   No.  Atomic        x           y          z          Radius
        Label       (Frac)      (Frac)     (Frac)       (Angs)
     1  O     c     0.000000    0.333330    0.800000    0.000000
     2  O     c     0.903369    0.266203    0.632238    0.000000
     3  O     c     0.213859    0.673013    0.704173    0.000000
     4  O     c     0.921402    0.685241    0.520236    0.000000
     5  O     c     0.235348    0.478569    0.356459    0.000000
     6  O     c     0.069655    0.657189    0.993023    0.000000
     7  O     c     0.126371    0.062053    0.463744    0.000000
     8  O     c     0.526641    0.371446    0.497129    0.000000
     9  O     c     0.014901    0.732428    0.174799    0.000000
    10  Sr    c     0.016832    0.219638    0.088314    0.000000
    11  Sr    c     0.073150    0.096155    0.907422    0.000000
    12  Sr    c     0.134638    0.023969    0.274883    0.000000
    13  Ti    c     0.833656    0.237014    0.539117    0.000000
    14  Ti    c     0.224394    0.509347    0.451472    0.000000
    15  Ti    c     0.098303    0.233573    0.711238    0.000000

  Final Cartesian lattice vectors (Angstroms) :

        5.460004    0.530046   -0.082959
        0.795068    3.482148   -0.216763
       -0.207398   -0.361271   18.890669

  Final cell parameters and derivatives :

       a            5.486299 Angstrom     dE/de1(xx)    -1.546973 eV/strain
       b            3.578334 Angstrom     dE/de2(yy)     0.984829 eV/strain
       c           18.895261 Angstrom     dE/de3(zz)     1.922001 eV/strain
       alpha       94.680902 Degrees      dE/de4(yz)     0.770610 eV/strain
       beta        91.598091 Degrees      dE/de5(xz)     0.528123 eV/strain
       gamma       71.575408 Degrees      dE/de6(xy)     0.069760 eV/strain

  Primitive cell volume =           350.758896 Angs**3

  Density of cell =      2.606181 g/cm**3

  Non-primitive cell volume =           350.758896 Angs**3

  Final internal derivatives :

   No.  Atomic          a             b             c           Radius
        Label          (eV)          (eV)          (eV)        (eV/Angs)
      1 O     c       0.000000      0.000000      0.000000      0.000000
      2 O     c       0.441476     -0.294740      7.536689      0.000000
      3 O     c       0.096549     -0.164082     -1.409744      0.000000
      4 O     c      -0.653076     -2.032275     -6.194713      0.000000
      5 O     c       0.810284     -0.426512    -10.165525      0.000000
      6 O     c       1.604080      1.258440     -1.876441      0.000000
      7 O     c      -2.120272     -0.435533      4.535844      0.000000
      8 O     c       2.796209     -0.138798     -2.940875      0.000000
      9 O     c      -0.911465      0.935167     -1.336057      0.000000
     10 Sr    c       0.017886      1.093076      0.746852      0.000000
     11 Sr    c       2.215445      1.668205     -2.531796      0.000000
     12 Sr    c       0.219899      0.067630      5.336899      0.000000
     13 Ti    c      -2.131675      0.169114     -2.178196      0.000000
     14 Ti    c      -0.515561     -0.637551      6.637490      0.000000
     15 Ti    c       0.056845     -0.110025     -3.575574      0.000000
  Maximum abs         2.796209      2.032275     10.165525      0.000000

  Time to end of optimisation =       1.2746 seconds

 Exiting ------OPTIONS------

  Timing analysis for GULP :

  Task / Subroutine                                          Time (Seconds)
  Calculation of reciprocal space energy and derivatives          0.1412
  Calculation of real space energy and derivatives                1.1163
  Global summation overhead                                       0.0008

  Job Finished at 16:32.29 24th January    2020