  Job Started  at 14:47.51  3rd February   2020

  Number of CPUs =     1

  Total number of configurations input =      1

*  Input for Configuration =   1                                               *

  Formula = O9Sr3Ti3

  Number of irreducible atoms/shells =      15

  Total number atoms/shells =      15

  Dimensionality = 3               :  Bulk

  Cartesian lattice vectors (Angstroms) :

        4.000000    0.000000    0.000000
        0.000000    8.000000    0.000000
        0.000000    0.000000   10.000000

  Cell parameters (Angstroms/Degrees):

  a =       4.0000    alpha =  90.0000
  b =       8.0000    beta  =  90.0000
  c =      10.0000    gamma =  90.0000

  Initial cell volume =         320.000000 Angs**3

  Temperature of configuration =  0.000     K

  Pressure of configuration =         0.000 GPa

  Fractional coordinates of asymmetric unit :

   No.  Atomic       x           y          z         Charge      Occupancy
        Label      (Frac)      (Frac)     (Frac)        (e)         (Frac)
      1 O     c    0.500000    0.250000    0.600000    -2.00000    1.000000
      2 O     c    0.000000 *  0.750000 *  0.800000 *  -2.00000    1.000000
      3 O     c    0.500000 *  0.500000 *  0.800000 *  -2.00000    1.000000
      4 O     c    0.500000 *  0.250000 *  0.000000 *  -2.00000    1.000000
      5 O     c    0.500000 *  0.500000 *  0.200000 *  -2.00000    1.000000
      6 O     c    0.000000 *  0.500000 *  0.200000 *  -2.00000    1.000000
      7 O     c    0.000000 *  0.250000 *  0.600000 *  -2.00000    1.000000
      8 O     c    0.500000 *  0.250000 *  0.400000 *  -2.00000    1.000000
      9 O     c    0.500000 *  0.500000 *  0.400000 *  -2.00000    1.000000
     10 Sr    c    0.250000 *  0.875000 *  0.500000 *   2.00000    1.000000
     11 Sr    c    0.250000 *  0.125000 *  0.900000 *   2.00000    1.000000
     12 Sr    c    0.250000 *  0.625000 *  0.900000 *   2.00000    1.000000
     13 Ti    c    0.750000 *  0.875000 *  0.700000 *   4.00000    1.000000
     14 Ti    c    0.750000 *  0.375000 *  0.100000 *   4.00000    1.000000
     15 Ti    c    0.250000 *  0.125000 *  0.500000 *   4.00000    1.000000

*  General input information                                                   *

  Species output for all configurations :

  Species    Type    Atomic    Atomic    Charge       Radii (Angs)     Library
                     Number     Mass       (e)     Cova   Ionic  VDW   Symbol
    O        Core        8      16.00  -2.000000   0.730  0.000  1.360
    Sr       Core       38      87.62   2.000000   1.120  0.000  1.670
    Ti       Core       22      47.88   4.000000   1.470  0.000  2.190

  Lattice summation method               =    Ewald          (3-D)
                                         =    Parry          (2-D)
                                         =    Saunders et al (1-D)
  Accuracy factor for lattice sums       =   12.000

  Time limit = Infinity

  Maximum range for interatomic potentials =    100000.000000 Angstroms

  General interatomic potentials :

Atom  Types   Potential      Parameter       Value         Units   Cutoffs(Ang)
  1     2                                                            Min /  Max
O    c Sr   c Buckingham    Buckingham A     1952.3900    eV        0.000 10.000
                            Buckingham rho  0.33685000    Ang
                            Buckingham C     19.220000    eV*Ang^6
O    c Ti   c Buckingham    Buckingham A     4590.7279    eV        0.000 10.000
                            Buckingham rho  0.26100000    Ang
                            Buckingham C     0.0000000    eV*Ang^6
O    c O    c Buckingham    Buckingham A     1388.7700    eV        0.000 10.000
                            Buckingham rho  0.36262000    Ang
                            Buckingham C     175.00000    eV*Ang^6
 Calling ------OPTIONS------

*  Output for configuration   1                                                *

  Components of energy :

  Interatomic potentials     =          97.01435912 eV
  Monopole - monopole (real) =        -115.35329340 eV
  Monopole - monopole (recip)=        -197.84378280 eV
  Monopole - monopole (total)=        -313.19707620 eV
  Total lattice energy       =        -216.18271708 eV
  Total lattice energy       =          -20858.3275 kJ/(mole unit cells)

  Number of variables =       48

  Maximum number of calculations  =          1000
  Maximum Hessian update interval =            10
  Maximum step size               =   1.000000000
  Maximum parameter tolerance     =   0.000010000
  Maximum function  tolerance     =   0.000010000
  Maximum gradient  tolerance     =   0.001000000
  Maximum gradient  component     =   0.010000000

  Cell parameters to be optimised using strains

  Conjugate gradient optimiser to be used

  Lower half triangular hessian to be used

  Start of bulk optimisation :

 Perform trimming
 Line minimisation2
 ALPHA BEFORE:    1.0000000000000000
step before apply   ...       0.25000000

funct1    ...    -216.18271708

step before apply   ...       0.25000000

[...]

  ** Opt : line minimisation
left   ...       0.00000000    -216.18271708
centre ...       0.25000000    -273.30560253
right  ...       0.50000000    -308.48502498

[...]

last funct1    ...    -328.26969713

left   ...       0.00000000    -216.18271708
centre ...       0.25000000    -273.30560253
right  ...       0.50000000    -308.48502498
new    ...       0.77579616    -328.26969713

__s__    ...       0.27579616

[...]

 ALPHA AFTER:    1.0937566518055146
 Perform trimming
 Line minimisation2
 ALPHA BEFORE:    1.0937566518055146
step before apply   ...       0.27343916

[...]

 ALPHA AFTER:   0.27272246406494022
 Line minimisation2
 ALPHA BEFORE:   0.27272246406494022
step before apply   ...       0.06818062

[...]

 ALPHA AFTER:   0.84620699684598510
 Perform trimming
 Line minimisation2
 ALPHA BEFORE:   0.84620699684598510
step before apply   ...       0.21155175

[...]

 ALPHA AFTER:    7.1021940661538278E-006
 Line minimisation2
 ALPHA BEFORE:    7.1021940661538278E-006
step before apply   ...       0.00000178

[...]

funct1    ...    -471.45344558

  ** Opt : line minimisation
left   ...       0.00000000    -471.45344558
centre ...       0.00000178    -471.45344558
right  ...       0.00000355    -471.45344558

step before apply   ...       0.00000355

last funct1    ...    -471.45327058

left   ...       0.00000000    -471.45344558
centre ...       0.00000178    -471.45344558
right  ...       0.00000355    -471.45344558
new    ...       0.00000710    -471.45327058

__s__    ...       0.00000355

 ALPHA AFTER:    3.5510970330769139E-006

  **** Conditions for a minimum have not been satisfied. However ****
  **** no lower point can be found - treat results with caution  ****
  **** unless gradient norm is small (less than 0.1)             ****

  Final energy =    -471.45344558 eV
  Final Gnorm  =       0.01293899

  Components of energy :

  Interatomic potentials     =          69.03275712 eV
  Monopole - monopole (real) =        -252.65892568 eV
  Monopole - monopole (recip)=        -287.82727702 eV
  Monopole - monopole (total)=        -540.48620270 eV
  Total lattice energy       =        -471.45344558 eV
  Total lattice energy       =          -45488.0507 kJ/(mole unit cells)

  Final fractional coordinates of atoms :

   No.  Atomic        x           y          z          Radius
        Label       (Frac)      (Frac)     (Frac)       (Angs)
     1  O     c     0.500000    0.250000    0.600000    0.000000
     2  O     c     0.850012    0.317637    0.782282    0.000000
     3  O     c     0.029238    0.813879    0.850683    0.000000
     4  O     c     0.503391    0.298104    0.110168    0.000000
     5  O     c     0.673211    0.827463    0.204206    0.000000
     6  O     c     0.085856    0.564927    0.161836    0.000000
     7  O     c     0.828196    0.966288    0.629017    0.000000
     8  O     c     0.265643    0.377156    0.393543    0.000000
     9  O     c     0.252916    0.687031    0.565953    0.000000
    10  Sr    c     0.098810    0.942435    0.335469    0.000000
    11  Sr    c     0.284211    0.454875    0.912956    0.000000
    12  Sr    c     0.462673    0.977964    0.995398    0.000000
    13  Ti    c     0.271037    0.917568    0.661685    0.000000
    14  Ti    c     0.521227    0.522501    0.205649    0.000000
    15  Ti    c     0.068213    0.363700    0.587519    0.000000

  Final Cartesian lattice vectors (Angstroms) :

        3.643592   -0.549425    0.749579
       -1.098850    6.282764    0.531290
        1.873947    0.664112   10.253945

  Final cell parameters and derivatives :

       a            3.760252 Angstrom     dE/de1(xx)     0.014454 eV/strain
       b            6.400223 Angstrom     dE/de2(yy)     0.064106 eV/strain
       c           10.444908 Angstrom     dE/de3(zz)     0.030982 eV/strain
       alpha       83.505624 Degrees      dE/de4(yz)    -0.003395 eV/strain
       beta        68.884198 Degrees      dE/de5(xz)    -0.019239 eV/strain
       gamma      107.052477 Degrees      dE/de6(xy)    -0.003623 eV/strain

  Primitive cell volume =           217.336013 Angs**3

  Density of cell =      4.206120 g/cm**3

  Non-primitive cell volume =           217.336013 Angs**3

  Final internal derivatives :

   No.  Atomic          a             b             c           Radius
        Label          (eV)          (eV)          (eV)        (eV/Angs)
      1 O     c       0.000000      0.000000      0.000000      0.000000
      2 O     c      -0.002327      0.016728      0.045912      0.000000
      3 O     c      -0.003579      0.030576     -0.055004      0.000000
      4 O     c      -0.064204     -0.055032      0.242412      0.000000
      5 O     c      -0.157592      0.026617     -0.020396      0.000000
      6 O     c      -0.143327      0.080155      0.134839      0.000000
      7 O     c      -0.124448      0.111214      0.032391      0.000000
      8 O     c      -0.061382     -0.030134     -0.227028      0.000000
      9 O     c       0.013642     -0.031384     -0.028431      0.000000
     10 Sr    c      -0.132277     -0.015562      0.042019      0.000000
     11 Sr    c      -0.054198     -0.067730     -0.169211      0.000000
     12 Sr    c      -0.027054      0.054916      0.151533      0.000000
     13 Ti    c       0.045269     -0.053101     -0.075781      0.000000
     14 Ti    c      -0.104928     -0.071479     -0.152887      0.000000
     15 Ti    c       0.028299     -0.077905      0.101086      0.000000
  Maximum abs         0.157592      0.111214      0.242412      0.000000

  Time to end of optimisation =       2.0336 seconds

 Exiting ------OPTIONS------

  Timing analysis for GULP :

  Task / Subroutine                                          Time (Seconds)
  Calculation of reciprocal space energy and derivatives          0.1649
  Calculation of real space energy and derivatives                1.8378
  Global summation overhead                                       0.0009

  Job Finished at 14:47.53  3rd February   2020